64
Energy =
O    -0.2036372   -1.3398694   -0.1539753 
N     4.4628178   -2.1681264   -0.4462190 
N    -4.9122544   -0.9311424    0.2542490 
C     0.1297725    1.4133351   -0.5422444 
C     1.2408171    0.5525039   -0.5456319 
C    -1.1528867    0.8700820   -0.3660235 
C     1.0435430   -0.8398751   -0.3265085 
C    -1.2916527   -0.5337358   -0.1609774 
C     3.4231774   -1.3069342   -0.4661003 
C    -3.7037124   -0.3679996    0.0633499 
C     0.3091436    2.8657706   -0.7359619 
C     2.0875968   -1.7496646   -0.3015161 
C    -2.5204224   -1.1463108    0.0143169 
C     2.5848170    0.9869132   -0.7330570 
C    -2.3489773    1.6458270   -0.3123444 
C     3.6309055    0.0994303   -0.7076997 
C    -3.5729857    1.0555749   -0.1278702 
C     4.2468759   -3.5865442   -0.1730666 
C     5.8422243   -1.7005412   -0.5706860 
C    -6.1356510   -0.1405427    0.3596792 
C    -5.0689653   -2.3766926    0.3755862 
C     0.8018461    3.6619203    0.3214339 
C    -0.0257819    3.4382700   -1.9739483 
C     4.0567265   -3.9048619    1.3043443 
C     6.4083441   -1.1118377    0.7144707 
C    -6.7602979    0.1475440   -0.9968122 
C    -4.8616810   -2.8673840    1.8007166 
C     0.9615978    5.0362037    0.0886801 
C     0.1473874    4.8093452   -2.1823714 
C     0.6417587    5.6096396   -1.1469073 
C     1.1423701    3.0551800    1.6558115 
H     1.8358818   -2.7914367   -0.1207455 
H    -2.5244599   -2.2220805    0.1714324 
H     2.7752500    2.0446142   -0.9234653 
H    -2.2834808    2.7261100   -0.4491807 
H     4.6359740    0.4857561   -0.8579196 
H    -4.4550550    1.6914645   -0.1137418 
H     3.3836248   -3.9306637   -0.7588749 
H     5.1186350   -4.1239980   -0.5645130 
H     6.4408772   -2.5637488   -0.8843861 
H     5.9011051   -0.9734790   -1.3911701 
H    -6.8319181   -0.7120386    0.9869608 
H    -5.9254875    0.7865958    0.9064926 
H    -6.0822777   -2.6208856    0.0315143 
H    -4.3809849   -2.8735082   -0.3202713 
H    -0.4101058    2.8000177   -2.7731682 
H     4.9566822   -3.6516766    1.8771067 
H     3.2101927   -3.3485932    1.7262748 
H     3.8602211   -4.9779412    1.4296453 
H     5.8068009   -0.2619787    1.0614365 
H     6.4338345   -1.8646097    1.5112161 
H     7.4338867   -0.7597086    0.5408828 
H    -6.0761594    0.7282634   -1.6286645 
H    -6.9991530   -0.7890381   -1.5170550 
H    -7.6889430    0.7198398   -0.8722161 
H    -5.0038042   -3.9548963    1.8504879 
H    -3.8497226   -2.6328846    2.1545150 
H    -5.5832945   -2.3935926    2.4786808 
H     1.3351242    5.6692698    0.8972932 
H    -0.1074967    5.2501297   -3.1479252 
H     0.7760442    6.6822644   -1.2990484 
H     0.3412524    2.3881108    2.0036779 
H     2.0656224    2.4601263    1.6019842 
H     1.2885185    3.8387191    2.4100276 
