64
td, S0-min, conf2
O          0.04460       -1.50840        0.04920
N          4.77120       -1.68250        0.19370
N         -4.67430       -1.83450       -0.09430
C          0.00280        1.27540       -0.06090
C          1.22180        0.58200        0.00450
C         -1.19450        0.54270       -0.07160
C          1.21360       -0.83620        0.05890
C         -1.14420       -0.87480       -0.01340
C          3.63230       -0.96120        0.13030
C         -3.55760       -1.07710       -0.07470
C         -0.01970        2.76180       -0.12560
C          2.36510       -1.59210        0.11330
C         -2.27230       -1.66690       -0.00990
C          2.50260        1.20400        0.01620
C         -2.49390        1.12340       -0.11980
C          3.65380        0.47830        0.07310
C         -3.62260        0.36140       -0.11640
C          4.67210       -3.14830        0.15500
C          6.07780       -1.03980        0.06980
C         -4.53410       -3.29100        0.03990
C         -5.99980       -1.22450       -0.01360
C         -0.01490        3.52290        1.05640
C         -0.04750        3.38570       -1.37460
C          5.97610       -3.90020        0.32720
C          6.48540       -0.77360       -1.37120
C         -5.81290       -4.08950       -0.11030
C         -6.42400       -0.89100        1.40830
C         -0.03780        4.91510        0.93910
C         -0.06820        4.77400       -1.46770
C         -0.06330        5.53900       -0.30530
C          0.01320        2.85970        2.40470
H          2.25090       -2.67140        0.13930
H         -2.12610       -2.74140        0.04500
H          2.55510        2.29250       -0.02820
H         -2.57950        2.21000       -0.15550
H          4.60070        1.01140        0.06910
H         -4.58550        0.86420       -0.14330
H          3.98380       -3.46220        0.95400
H          4.20110       -3.44750       -0.79740
H          6.07450       -0.11000        0.65170
H          6.81890       -1.68070        0.55740
H         -3.82100       -3.63400       -0.72450
H         -4.07440       -3.51630        1.01790
H         -6.01930       -0.32890       -0.64630
H         -6.71830       -1.91350       -0.46840
H         -0.05210        2.77420       -2.27970
H          6.69640       -3.69330       -0.47670
H          6.45440       -3.68660        1.29410
H          5.75090       -4.97630        0.29990
H          6.53700       -1.71010       -1.94690
H          5.77230       -0.10380       -1.87500
H          7.47830       -0.29960       -1.40140
H         -6.55460       -3.85660        0.66660
H         -6.27760       -3.94710       -1.09690
H         -5.55850       -5.15510       -0.01480
H         -7.43140       -0.44770        1.40810
H         -6.44910       -1.79480        2.03580
H         -5.73480       -0.17150        1.87550
H         -0.03600        5.52030        1.84900
H         -0.08900        5.25460       -2.44810
H         -0.08040        6.62970       -0.36540
H         -0.02370        3.60470        3.21070
H         -0.83950        2.17500        2.53220
H          0.92760        2.26050        2.53590
