64
Energy =
O    -0.0529729   -1.2901820    0.0280712 
N     4.6863922   -1.3352932    0.3209407 
N    -4.7787714   -1.6876183   -0.1494133 
C    -0.1511576    1.5044117   -0.1571925 
C     1.0830580    0.8344296   -0.0709850 
C    -1.3336229    0.7452468   -0.1798399 
C     1.1012042   -0.5825285    0.0445929 
C    -1.2533342   -0.6728941   -0.0674094 
C     3.5285876   -0.6502552    0.1687499 
C    -3.6682967   -0.9214280   -0.1573954 
C    -0.1996034    2.9759306   -0.2442030 
C     2.2773545   -1.3126662    0.1291222 
C    -2.3724763   -1.4891243   -0.0929012 
C     2.3467627    1.4916380   -0.0769395 
C    -2.6421328    1.3092920   -0.2383772 
C     3.5186818    0.7830164    0.0112285 
C    -3.7597614    0.5138922   -0.2520978 
C     4.6266666   -2.8002716    0.3708986 
C     5.9743063   -0.6664752    0.1570212 
C    -4.7035296   -3.1355949    0.0113359 
C    -6.1187684   -1.1257126   -0.2953111 
C     0.0547398    3.7589807    0.9035570 
C    -0.5091967    3.5786105   -1.4747602 
C     5.9329111   -3.4911410    0.7121418 
C     6.3692446   -0.4908088   -1.3022954 
C    -4.4872379   -3.8621646   -1.3081406 
C    -6.7175414   -0.6788543    1.0298641 
C     0.0068180    5.1539350    0.7674023 
C    -0.5432207    4.9706372   -1.5844862 
C    -0.2851858    5.7589640   -0.4590008 
C     0.3599586    3.1188094    2.2312681 
H     2.1833678   -2.3929319    0.1899432 
H    -2.2073257   -2.5618539   -0.0341628 
H     2.3711445    2.5761473   -0.1972054 
H    -2.7426466    2.3942250   -0.2901931 
H     4.4532628    1.3367390   -0.0222764 
H    -4.7341546    0.9955348   -0.2846574 
H     3.8841271   -3.0741114    1.1338879 
H     4.2470017   -3.1796939   -0.5939166 
H     5.9382193    0.2975317    0.6777679 
H     6.7298313   -1.2503480    0.6895079 
H    -3.9122565   -3.3758148    0.7337263 
H    -5.6446490   -3.4587227    0.4758302 
H    -6.0908488   -0.3023341   -1.0199968 
H    -6.7429837   -1.9045512   -0.7532474 
H    -0.7049350    2.9487380   -2.3457100 
H     6.7076272   -3.3296321   -0.0458429 
H     6.3167581   -3.1756079    1.6896784 
H     5.7433995   -4.5703560    0.7625243 
H     6.4538789   -1.4644158   -1.8017981 
H     5.6243391    0.1059660   -1.8441547 
H     7.3399509    0.0165238   -1.3779592 
H    -5.3085006   -3.6511827   -2.0045962 
H    -3.5490673   -3.5492044   -1.7828185 
H    -4.4488246   -4.9470503   -1.1455414 
H    -7.7319631   -0.2877358    0.8787835 
H    -6.7780111   -1.5208287    1.7310018 
H    -6.1085266    0.1072289    1.4934236 
H     0.1917917    5.7771445    1.6452997 
H    -0.7743215    5.4364904   -2.5436995 
H    -0.3146862    6.8470824   -0.5338091 
H     0.2792340    3.8529585    3.0423858 
H    -0.3373246    2.2974058    2.4468761 
H     1.3772158    2.7018783    2.2555032 

