64
td, S0-min, conf1
O         -1.49140       -0.12240        0.00000
N         -1.72550       -0.10750        4.72750
N         -1.72550       -0.10750       -4.72750
C          1.29600       -0.08120        0.00000
C          0.58300       -0.08970        1.20910
C          0.58300       -0.08970       -1.20910
C         -0.83740       -0.11150        1.18030
C         -0.83740       -0.11150       -1.18030
C         -0.99610       -0.09690        3.59620
C         -0.99610       -0.09690       -3.59620
C          2.78390       -0.06620        0.00000
C         -1.60970       -0.11570        2.32020
C         -1.60970       -0.11570       -2.32020
C          1.18610       -0.06830        2.49870
C          1.18610       -0.06830       -2.49870
C          0.44280       -0.07010        3.64020
C          0.44280       -0.07010       -3.64020
C         -3.18180       -0.21160        4.70200
C         -1.11980       -0.01740        6.05450
C         -3.18180       -0.21160       -4.70200
C         -1.11980       -0.01740       -6.05450
C          3.48120        1.15460        0.00000
C          3.47320       -1.28040        0.00000
C         -3.87610        1.13640        4.58910
C         -0.71920       -1.36940        6.62260
C         -3.87610        1.13640       -4.58910
C         -0.71920       -1.36940       -6.62260
C          4.87790        1.11100        0.00000
C          4.86460       -1.30020        0.00000
C          5.56700       -0.09890        0.00000
C          2.74680        2.46580        0.00000
H         -2.68940       -0.11710        2.19690
H         -2.68940       -0.11710       -2.19690
H          2.27460       -0.05580        2.56580
H          2.27460       -0.05580       -2.56580
H          0.95790       -0.06670        4.59760
H          0.95790       -0.06670       -4.59760
H         -3.48540       -0.87740        3.88310
H         -3.48530       -0.71500        5.63050
H         -0.26110        0.66580        6.02340
H         -1.85970        0.46140        6.71080
H         -3.48530       -0.71500       -5.63050
H         -3.48540       -0.87740       -3.88310
H         -1.85970        0.46140       -6.71080
H         -0.26110        0.66580       -6.02340
H          2.90980       -2.21620        0.00000
H         -3.60210        1.79190        5.42970
H         -3.60830        1.64990        3.65360
H         -4.96810        1.00140        4.60440
H         -1.58780       -2.04250        6.68650
H          0.04510       -1.85690        5.99900
H         -0.30770       -1.24720        7.63580
H         -3.60830        1.64990       -3.65360
H         -3.60210        1.79190       -5.42970
H         -4.96810        1.00140       -4.60440
H         -0.30770       -1.24720       -7.63580
H          0.04510       -1.85690       -5.99900
H         -1.58780       -2.04250       -6.68650
H          5.43400        2.05160        0.00000
H          5.39680       -2.25370        0.00000
H          6.65940       -0.10130        0.00000
H          3.44860        3.31050        0.00000
H          2.09780        2.56070       -0.88440
H          2.09780        2.56070        0.88440
