64
Energy =
O     0.0144033   -1.5203943    0.0265399 
N     4.7554970   -1.6542389    0.2484306 
N    -4.7178550   -1.8493481   -0.1541781 
C    -0.0375178    1.2790347   -0.0783570 
C     1.1853919    0.5862788   -0.0311441 
C    -1.2338591    0.5404046   -0.0985590 
C     1.1803796   -0.8339102    0.0457215 
C    -1.1760024   -0.8808008   -0.0424574 
C     3.6077264   -0.9462345    0.1314806 
C    -3.5974537   -1.0912390   -0.1105947 
C    -0.0625686    2.7529596   -0.1203390 
C     2.3448101   -1.5859513    0.0942891 
C    -2.3098369   -1.6788039   -0.0585577 
C     2.4605268    1.2216652   -0.0416012 
C    -2.5336364    1.1259885   -0.1171619 
C     3.6206681    0.4908853    0.0099403 
C    -3.6644747    0.3491896   -0.1275614 
C     4.6711205   -3.1188898    0.2636953 
C     6.0524452   -1.0038749    0.0806059 
C    -4.5764783   -3.3061623   -0.0489144 
C    -6.0372405   -1.2360670   -0.0252511 
C     0.2309082    3.4977179    1.0435170 
C    -0.3904148    3.3965085   -1.3252573 
C     5.9699657   -3.8399883    0.5686557 
C     6.4280290   -0.7997844   -1.3800889 
C    -5.8519646   -4.0989177   -0.2601448 
C    -6.4034549   -0.9156619    1.4168115 
C     0.2033826    4.8966617    0.9488845 
C    -0.4031166    4.7914755   -1.3938811 
C    -0.1062270    5.5421037   -0.2523204 
C     0.5543966    2.8145062    2.3452467 
H     2.2329728   -2.6657057    0.1275805 
H    -2.1568808   -2.7524571   -0.0016692 
H     2.5022290    2.3083286   -0.1343460 
H    -2.6182143    2.2134097   -0.1265366 
H     4.5642764    1.0289697   -0.0253820 
H    -4.6278683    0.8520876   -0.1308801 
H     3.9351220   -3.3984610    1.0308921 
H     4.2708692   -3.4679180   -0.7042414 
H     6.0413412   -0.0523664    0.6248824 
H     6.8054546   -1.6135433    0.5870905 
H    -3.8465038   -3.6223415   -0.8076881 
H    -4.1427505   -3.5565449    0.9349372 
H    -6.0703630   -0.3379169   -0.6529420 
H    -6.7715768   -1.9172221   -0.4632712 
H    -0.6172285    2.7958083   -2.2091811 
H     6.7361294   -3.6739521   -0.1969971 
H     6.3736179   -3.5544150    1.5474298 
H     5.7622997   -4.9166760    0.5965209 
H     6.4875238   -1.7622726   -1.9041601 
H     5.6857389   -0.1769794   -1.8956125 
H     7.4064241   -0.3079298   -1.4587899 
H    -6.6088375   -3.8946404    0.5055126 
H    -6.2856121   -3.9162274   -1.2505948 
H    -5.6028327   -5.1653698   -0.1986861 
H    -7.3995760   -0.4566237    1.4658792 
H    -6.4185547   -1.8285788    2.0258439 
H    -5.6804730   -0.2207332    1.8629091 
H     0.4185388    5.4907755    1.8399853 
H    -0.6481323    5.2889294   -2.3335684 
H    -0.1192744    6.6322935   -0.2947528 
H     0.4996183    3.5253175    3.1790026 
H    -0.1492997    1.9960383    2.5509199 
H     1.5663433    2.3842574    2.3367514 

