64
methyl, opt S0
O          0.00280       -1.48440        0.04900
N          4.72830       -1.56760        0.29280
N         -4.71280       -1.87470       -0.06810
C         -0.08570        1.29500       -0.13510
C          1.14480        0.62430       -0.03820
C         -1.26960        0.54300       -0.13700
C          1.16010       -0.79140        0.05440
C         -1.19660       -0.87300       -0.03580
C          3.57870       -0.87050        0.17540
C         -3.60460       -1.11170       -0.09830
C         -0.13110        2.77870       -0.23620
C          2.32360       -1.52490        0.14970
C         -2.31080       -1.68150       -0.01960
C          2.41380        1.26880       -0.02840
C         -2.57720        1.10120       -0.22120
C          3.57660        0.56580        0.06930
C         -3.69370        0.32170       -0.20500
C          4.65700       -3.03540        0.29780
C          6.02560       -0.89950        0.21370
C         -4.64750       -3.32020        0.12830
C         -6.05510       -1.31810       -0.22450
C         -0.13630        3.56740        0.92770
C         -0.16910        3.37270       -1.49940
C          5.97290       -3.75830        0.50080
C          6.49090       -0.64550       -1.21200
C         -4.49420       -4.09460       -1.17110
C         -6.67040       -0.85870        1.08750
C         -0.17960        4.95600        0.77800
C         -0.20970        4.75810       -1.62480
C         -0.21480        5.55010       -0.48070
C         -0.09750        2.93660        2.29130
H          2.22810       -2.60480        0.20890
H         -2.15360       -2.75490        0.04330
H          2.44840        2.35600       -0.10790
H         -2.67910        2.18450       -0.29480
H          4.51460        1.11420        0.05860
H         -4.66690        0.80340       -0.25780
H          3.96640       -3.33980        1.09900
H          4.20140       -3.37050       -0.64990
H          5.97810        0.03850        0.78120
H          6.75800       -1.51760        0.74210
H         -3.83100       -3.55690        0.82320
H         -5.57500       -3.61790        0.63710
H         -6.03160       -0.49950       -0.95530
H         -6.67530       -2.10530       -0.67520
H         -0.16590        2.74010       -2.38980
H          6.69920       -3.55150       -0.29780
H          6.43490       -3.51900        1.46950
H          5.76880       -4.83890        0.49010
H          6.58940       -1.58920       -1.76940
H          5.78670       -0.00020       -1.75840
H          7.47320       -0.14900       -1.20550
H         -5.33120       -3.88590       -1.85470
H         -3.55810       -3.83360       -1.68710
H         -4.48250       -5.17590       -0.96730
H         -7.69230       -0.48810        0.91660
H         -6.72520       -1.68850        1.80860
H         -6.08400       -0.04770        1.54470
H         -0.18600        5.58220        1.67350
H         -0.23810        5.21520       -2.61620
H         -0.24760        6.63870       -0.56630
H         -0.15230        3.69940        3.07950
H         -0.93570        2.23700        2.43320
H          0.82920        2.36040        2.43860
