64
CAM-B3LYP: S0 = -1269.9177811; S1 = -1269.81442129, ADC(2): S0 = -1266.5918492; S1 = -1266.5219313
O         -0.08594       -1.51094        0.15521
N          4.64859       -1.75653        0.14597
N         -4.81799       -1.77065        0.17540
C         -0.09291        1.32182        0.01211
C          1.12176        0.58083        0.03263
C         -1.30524        0.57703        0.05143
C          1.09202       -0.83938        0.11350
C         -1.26675       -0.84395        0.12050
C          3.51846       -1.00444        0.09512
C         -3.69211       -1.01757        0.13372
C         -0.09611        2.79939       -0.07733
C          2.23317       -1.60881        0.14416
C         -2.40336       -1.61816        0.16056
C          2.41557        1.17029       -0.04702
C         -2.60275        1.16418        0.04768
C          3.56316        0.42318       -0.01724
C         -3.74720        0.41150        0.08547
C          4.52639       -3.21762        0.18651
C          5.96064       -1.13887       -0.01116
C         -4.77174       -3.22601        0.24944
C         -6.14887       -1.17692        0.10009
C          0.24965        3.58874        1.03727
C         -0.45166        3.41263       -1.28434
C          5.82309       -3.98886        0.34409
C          6.34744       -0.90205       -1.46770
C         -4.63675       -3.89213       -1.11555
C         -6.69602       -0.76194        1.46096
C          0.24014        4.97793        0.89328
C         -0.45497        4.79758       -1.40676
C         -0.10409        5.58153       -0.31237
C          0.59889        2.95592        2.35732
H          2.09867       -2.68456        0.20346
H         -2.26757       -2.69541        0.20063
H          2.48052        2.25467       -0.14432
H         -2.67407        2.25172        0.01969
H          4.51616        0.93992       -0.09011
H         -4.70579        0.92392        0.09623
H          3.86133       -3.47857        1.02502
H          4.01199       -3.55344       -0.73197
H          5.97765       -0.19862        0.55497
H          6.70022       -1.78350        0.47366
H         -3.95602       -3.53210        0.91853
H         -5.69975       -3.55385        0.73878
H         -6.13037       -0.32554       -0.59342
H         -6.81025       -1.92477       -0.35989
H         -0.71869        2.78808       -2.13995
H          6.51838       -3.82931       -0.49124
H          6.33819       -3.75087        1.28526
H          5.58091       -5.06042        0.36645
H          6.38657       -1.84804       -2.02696
H          5.62839       -0.24063       -1.97206
H          7.34120       -0.43451       -1.52269
H         -5.47505       -3.61958       -1.77300
H         -3.70334       -3.59575       -1.61522
H         -4.63571       -4.98595       -1.00372
H         -7.70861       -0.34797        1.35109
H         -6.75367       -1.62271        2.14301
H         -6.06084        0.00195        1.93176
H          0.50127        5.60001        1.75240
H         -0.72793        5.26229       -2.35586
H         -0.10263        6.67010       -0.39435
H          0.70026        3.71471        3.14397
H         -0.17223        2.23762        2.67375
H          1.54883        2.40079        2.30546
64
CAM-B3LYP: S0 = -1269.9176277; S1 = -1269.81431830; ADC(2): S0 = -1266.5916058; S1 = -1266.5218195
O         -0.08792       -1.49799        0.14968
N          4.64597       -1.75550        0.16733
N         -4.81912       -1.74543        0.13503
C         -0.08694        1.33407       -0.00309
C          1.12569        0.59023        0.02710
C         -1.30153        0.59283        0.03314
C          1.09197       -0.82963        0.11214
C         -1.26681       -0.82798        0.11085
C          3.51803       -1.00071        0.10853
C         -3.69204       -0.99297        0.11933
C         -0.08556        2.81124       -0.10039
C          2.23101       -1.60177        0.15207
C         -2.40603       -1.59854        0.14878
C          2.42138        1.17634       -0.04640
C         -2.59716        1.18406        0.01528
C          3.56690        0.42650       -0.00749
C         -3.74409        0.43481        0.05128
C          4.51971       -3.21611        0.21231
C          5.96031       -1.14192        0.01326
C         -4.78713       -3.17962        0.39653
C         -6.14354       -1.15979       -0.03808
C          0.25137        3.60547        1.01339
C         -0.42747        3.41891       -1.31409
C          5.81351       -3.99015        0.37977
C          6.35326       -0.91083       -1.44255
C         -4.64909       -4.02103       -0.86777
C         -6.77497       -0.69036        1.26810
C          0.24682        4.99390        0.86213
C         -0.42609        4.80324       -1.44370
C         -0.08410        5.59201       -0.34998
C          0.58650        2.97829        2.33976
H          2.09350       -2.67702        0.21348
H         -2.27636       -2.67694        0.18533
H          2.48958        2.26031       -0.14600
H         -2.66468        2.27159       -0.02117
H          4.52160        0.94072       -0.07572
H         -4.70227        0.94848        0.05239
H          3.84938       -3.47230        1.04805
H          4.00950       -3.55390       -0.70780
H          5.97783       -0.19993        0.57645
H          6.69624       -1.78702        0.50295
H         -3.97799       -3.39984        1.10597
H         -5.72258       -3.43477        0.91541
H         -6.08151       -0.33795       -0.76371
H         -6.77588       -1.92854       -0.50581
H         -0.68761        2.79054       -2.16902
H          6.51361       -3.83575       -0.45251
H          6.32428       -3.74974        1.32269
H          5.56837       -5.06096        0.40508
H          6.39184       -1.85872       -1.99864
H          5.63795       -0.24901       -1.95169
H          7.34852       -0.44624       -1.49530
H         -5.47738       -3.82737       -1.56466
H         -3.70794       -3.80524       -1.39342
H         -4.66472       -5.09060       -0.61335
H         -7.78068       -0.28918        1.07749
H         -6.87305       -1.52028        1.98297
H         -6.17469        0.09766        1.74469
H          0.50129        5.61981        1.72047
H         -0.68848        5.26367       -2.39786
H         -0.07908        6.68013       -0.43762
H          0.68631        3.74096        3.12285
H         -0.19143        2.26649        2.65425
H          1.53338        2.41711        2.29839
64
CAM-B3LYP: S0 = -1269.9163367; S1 = -1269.81318261; ADC(2): S0 = -1266.5902669; S1 = -1266.5209495
O         -0.08720       -1.48871        0.14038
N          4.64625       -1.75352        0.18782
N         -4.81597       -1.73031        0.09288
C         -0.08055        1.34240       -0.02010
C          1.13047        0.59696        0.02023
C         -1.29696        0.60397        0.01262
C          1.09405       -0.82265        0.10830
C         -1.26467       -0.81666        0.09823
C          3.51971       -0.99735        0.12114
C         -3.68974       -0.97366        0.10321
C         -0.07576        2.81929       -0.12408
C          2.23164       -1.59645        0.15759
C         -2.40626       -1.58367        0.13379
C          2.42744        1.18118       -0.04500
C         -2.59076        1.19852       -0.01953
C          3.57144        0.42967        0.00325
C         -3.73991        0.45171        0.01477
C          4.51762       -3.21385        0.23535
C          5.96220       -1.14221        0.03848
C         -4.81106       -3.12085        0.53518
C         -6.12818       -1.15624       -0.17899
C          0.24741        3.61761        0.99072
C         -0.40014        3.42198       -1.34495
C          5.80931       -3.98933        0.41216
C          6.36216       -0.91471       -1.41596
C         -4.68589       -4.12172       -0.60840
C         -6.83938       -0.62287        1.06080
C          0.24673        5.00537        0.83367
C         -0.39521        4.80581       -1.48029
C         -0.06715        5.59872       -0.38533
C          0.56484        2.99493        2.32354
H          2.09212       -2.67137        0.22005
H         -2.28421       -2.66353        0.16729
H          2.49792        2.26494       -0.14533
H         -2.65489        2.28591       -0.06538
H          4.52739        0.94237       -0.05868
H         -4.69808        0.96563        0.00449
H          3.84207       -3.46714        1.06777
H          4.01231       -3.55310       -0.68693
H          5.97867       -0.19911        0.59986
H          6.69489       -1.78740        0.53289
H         -4.00564       -3.26021        1.26870
H         -5.75229       -3.29246        1.07850
H         -6.02077       -0.37127       -0.93933
H         -6.73344       -1.94865       -0.64423
H         -0.64955        2.79028       -2.20063
H          6.51430       -3.83819       -0.41658
H          6.31512       -3.74710        1.35729
H          5.56248       -5.05972        0.43895
H          6.40176       -1.86380       -1.96992
H          5.65022       -0.25280       -1.92969
H          7.35838       -0.45177       -1.46517
H         -5.50497       -4.00237       -1.33231
H         -3.73721       -3.99784       -1.15002
H         -4.72851       -5.14863       -0.21786
H         -7.83121       -0.23624        0.78616
H         -6.98438       -1.41410        1.81058
H         -6.27244        0.19109        1.53434
H          0.49080        5.63458        1.69262
H         -0.64401        5.26256       -2.43984
H         -0.05951        6.68645       -0.47750
H          0.66180        3.76074        3.10390
H         -0.22103        2.28991        2.63362
H          1.50824        2.42717        2.29431
64
CAM-B3LYP: S0 = -1269.9140636; S1 = -1269.81123628; ADC(2): S0 = -1266.5878714; S1 = -1266.5194303
O         -0.08354       -1.48236        0.12877
N          4.64943       -1.75032        0.20678
N         -4.80860       -1.72468        0.05280
C         -0.07358        1.34764       -0.03690
C          1.13624        0.60176        0.01248
C         -1.29139        0.61123       -0.00665
C          1.09849       -0.81773        0.10279
C         -1.26011       -0.80923        0.08499
C          3.52366       -0.99388        0.13205
C         -3.68511       -0.95941        0.08900
C         -0.06678        2.82428       -0.14702
C          2.23525       -1.59218        0.16108
C         -2.40375       -1.57306        0.11807
C          2.43390        1.18529       -0.04460
C         -2.58354        1.20823       -0.05023
C          3.57691        0.43312        0.01255
C         -3.73458        0.46277       -0.01709
C          4.51956       -3.21045        0.25681
C          5.96657       -1.14025        0.06248
C         -4.84396       -3.05044        0.66529
C         -6.10197       -1.16729       -0.32296
C          0.24206        3.62675        0.96871
C         -0.37437        3.42182       -1.37464
C          5.80965       -3.98624        0.44358
C          6.37369       -0.91597       -1.39043
C         -4.74659       -4.19046       -0.34229
C         -6.89508       -0.57017        0.83660
C          0.24397        5.01387        0.80613
C         -0.36708        4.80513       -1.51544
C         -0.05349        5.60232       -0.41936
C          0.54294        3.00875        2.30752
H          2.09467       -2.66693        0.22405
H         -2.29009       -2.65454        0.14887
H          2.50570        2.26892       -0.14536
H         -2.64502        2.29541       -0.10414
H          4.53359        0.94515       -0.04318
H         -4.69302        0.97615       -0.03769
H          3.83867       -3.46134        1.08557
H          4.01986       -3.55164       -0.66782
H          5.98127       -0.19610        0.62214
H          6.69636       -1.78502        0.56168
H         -4.04039       -3.11779        1.41068
H         -5.78925       -3.12803        1.22384
H         -5.94389       -0.42277       -1.11458
H         -6.67889       -1.98409       -0.78311
H         -0.61267        2.78670       -2.23095
H          6.51975       -3.83782       -0.38128
H          6.30989       -3.74164        1.39107
H          5.56203       -5.05641        0.47183
H          6.41503       -1.86620       -1.94232
H          5.66479       -0.25445       -1.90888
H          7.37054       -0.45402       -1.43590
H         -5.55714       -4.13811       -1.08354
H         -3.79143       -4.16631       -0.88626
H         -4.82514       -5.15824        0.17351
H         -7.86396       -0.20002        0.47216
H         -7.09719       -1.31961        1.61527
H         -6.36268        0.26861        1.30657
H          0.47715        5.64646        1.66562
H         -0.60284        5.25811       -2.48005
H         -0.04420        6.68967       -0.51583
H          0.63226        3.77735        3.08605
H         -0.24762        2.30623        2.61132
H          1.48564        2.43932        2.29106
64
CAM-B3LYP: S0 = -1269.9106893; S1 = -1269.80835267; ADC(2): S0 = -1266.5842405; S1 = -1266.5172693
O         -0.07629       -1.47955        0.10241
N          4.65560       -1.75237        0.22592
N         -4.79694       -1.72287       -0.02539
C         -0.06158        1.34969       -0.05504
C          1.14642        0.60303        0.00448
C         -1.28128        0.61563       -0.03595
C          1.10677       -0.81677        0.08993
C         -1.25151       -0.80491        0.05453
C          3.53102       -0.99518        0.14336
C         -3.67633       -0.94728        0.04413
C         -0.05207        2.82668       -0.16358
C          2.24223       -1.59251        0.15734
C         -2.39786       -1.56522        0.07610
C          2.44496        1.18589       -0.03634
C         -2.57109        1.21594       -0.09312
C          3.58643        0.43247        0.03003
C         -3.72439        0.47163       -0.07074
C          4.52400       -3.21254        0.26989
C          5.97441       -1.14299        0.09401
C         -4.89410       -2.96461        0.74097
C         -6.05642       -1.18824       -0.52763
C          0.23443        3.62739        0.95917
C         -0.33449        3.42541       -1.39651
C          5.81159       -3.99001        0.46674
C          6.39321       -0.91407       -1.35478
C         -4.84084       -4.22071       -0.12073
C         -6.94943       -0.53264        0.52400
C          0.23948        5.01471        0.79859
C         -0.32446        4.80898       -1.53524
C         -0.03337        5.60468       -0.43193
C          0.50922        3.00679        2.30236
H          2.10014       -2.66735        0.21481
H         -2.29408       -2.64854        0.10144
H          2.51868        2.26993       -0.13131
H         -2.62916        2.30319       -0.14939
H          4.54409        0.94387       -0.01313
H         -4.68308        0.98423       -0.10336
H          3.83497       -3.46548        1.09126
H          4.03301       -3.55050       -0.66058
H          5.98580       -0.20085        0.65714
H          6.69965       -1.79011        0.59678
H         -4.09397       -2.97549        1.49274
H         -5.84270       -2.93591        1.29962
H         -5.83000       -0.48487       -1.34011
H         -6.59603       -2.02883       -0.99131
H         -0.55547        2.79136       -2.25823
H          6.52958       -3.84001       -0.35098
H          6.30309       -3.74830        1.41954
H          5.56285       -5.06005        0.48980
H          6.43780       -1.86243       -1.90964
H          5.68910       -0.24998       -1.87651
H          7.39088       -0.45306       -1.39096
H         -5.64264       -4.22601       -0.87319
H         -3.88103       -4.30253       -0.65090
H         -4.96514       -5.11479        0.50688
H         -7.87658       -0.17983        0.05026
H         -7.23263       -1.24023        1.31609
H         -6.46086        0.32831        1.00110
H          0.45575        5.64616        1.66331
H         -0.54062        5.26325       -2.50382
H         -0.02219        6.69216       -0.52679
H          0.59463        3.77452        3.08217
H         -0.29298        2.31245        2.59448
H          1.44607        2.42768        2.29964
64
CAM-B3LYP: S0 = -1269.906318; S1 = -1269.80467011; ADC(2): S0 = -1266.5793627; S1 = -1266.5148578
O         -0.06063       -1.48032        0.07801
N          4.67077       -1.74290        0.24692
N         -4.77790       -1.73884       -0.08157
C         -0.04982        1.34733       -0.07491
C          1.15822        0.60411       -0.00599
C         -1.26962        0.61220       -0.06124
C          1.12148       -0.81600        0.07758
C         -1.23644       -0.80781        0.02847
C          3.54493       -0.98902        0.15443
C         -3.66009       -0.94937        0.01011
C         -0.04294        2.82454       -0.18465
C          2.25794       -1.58937        0.15521
C         -2.38361       -1.56825        0.04375
C          2.45566        1.19025       -0.03301
C         -2.55859        1.21261       -0.12535
C          3.59773        0.43921        0.04354
C         -3.71188        0.46570       -0.10918
C          4.54214       -3.20336        0.28891
C          5.98916       -1.13009        0.12644
C         -4.95115       -2.87012        0.83005
C         -5.98751       -1.24344       -0.72620
C          0.21903        3.62668        0.94286
C         -0.30325        3.42100       -1.42338
C          5.82974       -3.97786        0.49711
C          6.41971       -0.89863       -1.31837
C         -5.01837       -4.22001        0.12699
C         -6.99212       -0.54746        0.19172
C          0.22198        5.01391        0.78152
C         -0.29561        4.80456       -1.56280
C         -0.02921        5.60199       -0.45453
C          0.47191        3.00716        2.29083
H          2.11782       -2.66461        0.20964
H         -2.28685       -2.65301        0.06583
H          2.52783        2.27467       -0.12469
H         -2.61648        2.29984       -0.18237
H          4.55466        0.95280        0.01096
H         -4.67301        0.97386       -0.14809
H          3.84639       -3.45836        1.10397
H          4.06042       -3.54227       -0.64604
H          5.99385       -0.18861        0.69078
H          6.71178       -1.77585        0.63472
H         -4.12796       -2.85587        1.55597
H         -5.87463       -2.70035        1.40749
H         -5.68316       -0.57643       -1.54371
H         -6.47469       -2.10977       -1.20148
H         -0.50525        2.78553       -2.28870
H          6.55472       -3.82583       -0.31406
H          6.31212       -3.73519        1.45432
H          5.58350       -5.04853        0.51763
H          6.47109       -1.84632       -1.87382
H          5.71850       -0.23569       -1.84546
H          7.41657       -0.43527       -1.34591
H         -5.84561       -4.26153       -0.59602
H         -4.08489       -4.43289       -0.41389
H         -5.18062       -5.02002        0.86334
H         -7.85405       -0.21130       -0.40195
H         -7.37439       -1.22280        0.96980
H         -6.55918        0.33081        0.69055
H          0.41961        5.64670        1.64971
H         -0.49449        5.25745       -2.53571
H         -0.02021        6.68943       -0.54995
H          0.54466        3.77538        3.07142
H         -0.33488        2.31299        2.57055
H          1.40866        2.42805        2.30328
64
CAM-B3LYP: S0 = -1269.9018369; S1 = -1269.80182174; ADC(2): S0 = -1266.5731895; S1 = -1266.5144624
O         -0.00305       -1.48621        0.04428
N          4.72949       -1.71304        0.26050
N         -4.72344       -1.78305       -0.13355
C         -0.01014        1.33773       -0.10100
C          1.20018        0.60613       -0.02307
C         -1.22802        0.59518       -0.09224
C          1.17528       -0.81506        0.05784
C         -1.18230       -0.82247       -0.00768
C          3.59757       -0.96970        0.15875
C         -3.60177       -0.97794       -0.04438
C         -0.01620        2.81586       -0.20601
C          2.31660       -1.58000        0.14516
C         -2.32653       -1.59158        0.00345
C          2.49314        1.20279       -0.03344
C         -2.51844        1.18958       -0.15653
C          3.63914        0.45990        0.05276
C         -3.66777        0.43240       -0.14970
C          4.61181       -3.17433        0.29664
C          6.04354       -1.08907        0.14902
C         -4.97750       -2.74994        0.93125
C         -5.86781       -1.34369       -0.91922
C          0.20306        3.61594        0.93170
C         -0.24708        3.41362       -1.44964
C          5.90345       -3.93910        0.51600
C          6.48170       -0.85075       -1.29206
C         -5.66679       -4.02133        0.46608
C         -7.00638       -0.71195       -0.11978
C          0.19307        5.00379        0.77608
C         -0.25286        4.79786       -1.58330
C         -0.02957        5.59381       -0.46453
C          0.42817        2.99273        2.28288
H          2.18452       -2.65643        0.19497
H         -2.22771       -2.67653        0.02102
H          2.55802        2.28814       -0.11925
H         -2.58230        2.27685       -0.20623
H          4.59244        0.98088        0.03248
H         -4.63588        0.92913       -0.18674
H          3.91026       -3.43742        1.10412
H          4.14226       -3.51514       -0.64384
H          6.03783       -0.14906        0.71586
H          6.76841       -1.72961        0.66073
H         -4.01318       -2.99161        1.39804
H         -5.57606       -2.25473        1.72037
H         -5.49690       -0.64954       -1.68376
H         -6.25254       -2.22188       -1.46310
H         -0.41594        2.77926       -2.32283
H          6.63504       -3.77980       -0.28785
H          6.37476       -3.69369        1.47804
H          5.66599       -5.01182        0.53263
H          6.54391       -1.79676       -1.84935
H          5.77863       -0.19236       -1.82248
H          7.47501       -0.37941       -1.31296
H         -6.68669       -3.83725        0.10085
H         -5.09386       -4.50736       -0.33708
H         -5.74387       -4.72433        1.30702
H         -7.79495       -0.38090       -0.81010
H         -7.46100       -1.42577        0.58129
H         -6.66898        0.16144        0.45678
H          0.35848        5.63527        1.65192
H         -0.42866        5.25240       -2.55988
H         -0.03147        6.68167       -0.55549
H          0.47787        3.75817        3.06799
H         -0.38053        2.29243        2.54123
H          1.36788        2.41932        2.31411
64
CAM-B3LYP: S0 = -1269.8678847; S1 = -1269.82452985; ADC(2): S0 = -1266.539058; S1 = -1266.5274914
O         -0.19018       -1.42287       -0.01662
N          4.54683       -1.80783        0.08667
N         -4.96256       -1.50974        0.09884
C         -0.12390        1.38281       -0.03045
C          1.08090        0.62096       -0.01742
C         -1.34508        0.70038       -0.02627
C          1.01727       -0.78777       -0.00093
C         -1.34766       -0.72861       -0.02679
C          3.43060       -1.02547        0.03870
C         -3.74882       -0.78499       -0.07329
C         -0.07757        2.86837       -0.03707
C          2.13557       -1.59488        0.02060
C         -2.51347       -1.46268       -0.02094
C          2.37878        1.17839       -0.01987
C         -2.62138        1.34283        0.00239
C          3.50868        0.39859        0.00339
C         -3.78783        0.62230        0.00674
C          4.38063       -3.26013        0.02819
C          5.87015       -1.21585       -0.06130
C         -5.31831       -2.06041        1.38774
C         -5.64208       -2.00870       -1.07654
C          0.05845        3.58178        1.16800
C         -0.16476        3.55402       -1.25139
C          5.64957       -4.07496        0.19912
C          6.25629       -0.92440       -1.50637
C         -4.76729       -3.48154        1.58072
C         -6.24336       -0.88347       -1.91986
C          0.10375        4.97641        1.11031
C         -0.11700        4.94391       -1.28861
C          0.01835        5.65559       -0.10141
C          0.15126        2.85925        2.48471
H          1.97107       -2.66766        0.02030
H         -2.43962       -2.54883       -0.02639
H          2.47725        2.26438       -0.04629
H         -2.65298        2.43206        0.01591
H          4.47490        0.89495       -0.01043
H         -4.74697        1.14015        0.04781
H          3.67664       -3.55483        0.82236
H          3.89888       -3.53628       -0.92800
H          5.91894       -0.30199        0.54551
H          6.60107       -1.89341        0.39172
H         -4.92173       -1.38863        2.15867
H         -6.41700       -2.08101        1.45506
H         -4.88372       -2.54453       -1.67528
H         -6.41423       -2.72296       -0.76297
H         -0.26590        2.98429       -2.17784
H          6.38072       -3.89775       -0.60160
H          6.13568       -3.88514        1.16659
H          5.38357       -5.14068        0.16802
H          6.26898       -1.84687       -2.10564
H          5.54869       -0.22789       -1.97912
H          7.25956       -0.47633       -1.55437
H         -5.11448       -4.16168        0.79126
H         -3.67255       -3.48699        1.61293
H         -5.14286       -3.85354        2.54266
H         -6.73910       -1.33192       -2.79031
H         -6.99434       -0.32071       -1.34855
H         -5.46933       -0.19366       -2.27660
H          0.20840        5.54110        2.03955
H         -0.18266        5.46820       -2.24366
H          0.05827        6.74645       -0.11635
H          0.20643        3.56695        3.32197
H         -0.72052        2.20714        2.64634
H          1.04226        2.21441        2.52639
64
CAM-B3LYP: S0 = -1269.8675913; S1 = -1269.83057031; ADC(2): S0 = -1266.5396117; S1 = -1266.5301799
O         -0.16554       -1.44470        0.03358
N          4.57509       -1.80008        0.12134
N         -4.92933       -1.57458        0.07996
C         -0.11727        1.35982       -0.03738
C          1.09320        0.60597       -0.01009
C         -1.33408        0.67039       -0.02365
C          1.03882       -0.80209        0.03004
C         -1.32661       -0.75853        0.00975
C          3.45339       -1.02504        0.06412
C         -3.72524       -0.82567       -0.02015
C         -0.07964        2.84524       -0.07342
C          2.16197       -1.60236        0.05943
C         -2.48858       -1.49938        0.02370
C          2.38724        1.17106       -0.02526
C         -2.61486        1.30639       -0.02682
C          3.52227        0.39831        0.00656
C         -3.77860        0.58101       -0.01356
C          4.41747       -3.25374        0.08352
C          5.89372       -1.20241       -0.04279
C         -5.41207       -2.01977        1.36680
C         -5.56991       -2.05733       -1.12182
C          0.03772        3.58276        1.11901
C         -0.15539        3.50691       -1.30169
C          5.69152       -4.05834        0.26488
C          6.27133       -0.93200       -1.49424
C         -4.84509       -3.39727        1.74343
C         -6.22253       -0.92524       -1.92156
C          0.07601        4.97626        1.03498
C         -0.11490        4.89611       -1.36536
C          0.00173        5.63141       -0.19063
C          0.11934        2.88596        2.45022
H          2.00380       -2.67594        0.07829
H         -2.41371       -2.58560        0.03992
H          2.47921        2.25701       -0.06982
H         -2.65190        2.39534       -0.04282
H          4.48528        0.90048       -0.01806
H         -4.74099        1.09404       -0.00270
H          3.71636       -3.54146        0.88276
H          3.93617       -3.54692       -0.86793
H          5.93966       -0.27843        0.54875
H          6.63126       -1.86770        0.41770
H         -5.11475       -1.27026        2.11033
H         -6.51011       -2.07079        1.31612
H         -4.78305       -2.52819       -1.73410
H         -6.31128       -2.81748       -0.84323
H         -0.24164        2.91874       -2.21809
H          6.42037       -3.88927       -0.53970
H          6.17802       -3.85026        1.22842
H          5.43201       -5.12603        0.25097
H          6.28713       -1.86402       -2.07850
H          5.55699       -0.24783       -1.97483
H          7.27145       -0.47836       -1.55444
H         -5.09812       -4.15603        0.99036
H         -3.75737       -3.35742        1.87046
H         -5.29603       -3.69633        2.69828
H         -6.69320       -1.36277       -2.81116
H         -7.00097       -0.42245       -1.33152
H         -5.48029       -0.18704       -2.24709
H          0.16656        5.55936        1.95429
H         -0.17146        5.40147       -2.33114
H          0.03594        6.72199       -0.22626
H          0.16664        3.60968        3.27418
H         -0.75336        2.23627        2.61662
H          1.01036        2.24276        2.51182
64
CAM-B3LYP: S0 = -1269.8683646; S1 = -1269.83126866; ADC(2): S0 = -1266.5402145; S1 = -1266.530899
O         -0.13978       -1.46871        0.03822
N          4.60160       -1.79668        0.17116
N         -4.89865       -1.63423       -0.04828
C         -0.10646        1.33523       -0.05888
C          1.10768        0.58873       -0.01009
C         -1.31975        0.63851       -0.05810
C          1.06095       -0.81941        0.03900
C         -1.30424       -0.78972       -0.00655
C          3.47624       -1.02844        0.09761
C         -3.70159       -0.86925       -0.04788
C         -0.07704        2.82043       -0.10740
C          2.18820       -1.61310        0.08390
C         -2.46255       -1.53681       -0.00455
C          2.39870        1.16102       -0.01608
C         -2.60342        1.26692       -0.09750
C          3.53765        0.39493        0.03198
C         -3.76408        0.53567       -0.09735
C          4.45262       -3.25144        0.13970
C          5.91868       -1.19192        0.02158
C         -5.53641       -1.98988        1.19809
C         -5.49829       -2.04155       -1.29720
C          0.02523        3.56851        1.07987
C         -0.14550        3.47160       -1.34173
C          5.72960       -4.04788        0.33589
C          6.31369       -0.92531       -1.42596
C         -4.88539       -3.22257        1.84198
C         -6.35039       -0.92270       -1.91455
C          0.05641        4.96147        0.98459
C         -0.11213        4.86043       -1.41663
C         -0.01028        5.60606       -0.24704
C          0.09792        2.88336        2.41763
H          2.03577       -2.68737        0.10955
H         -2.38557       -2.62289        0.02081
H          2.48511        2.24712       -0.06770
H         -2.64619        2.35540       -0.12605
H          4.49804        0.90236        0.01342
H         -4.72867        1.04411       -0.11796
H          3.74621       -3.53927        0.93428
H          3.98126       -3.55205       -0.81435
H          5.95137       -0.26516        0.60969
H          6.65412       -1.85084        0.49443
H         -5.44287       -1.12658        1.87118
H         -6.59902       -2.18296        0.99527
H         -4.68050       -2.30632       -1.98131
H         -6.11804       -2.92859       -1.10509
H         -0.21994        2.87540       -2.25397
H          6.46489       -3.87747       -0.46253
H          6.20597       -3.83363        1.30312
H          5.47636       -5.11709        0.32351
H          6.34278       -1.85965       -2.00597
H          5.60164       -0.24755       -1.91886
H          7.31176       -0.46585       -1.47494
H         -4.94138       -4.09463        1.17607
H         -3.83784       -3.02764        2.09938
H         -5.43442       -3.45527        2.76332
H         -6.79858       -1.30835       -2.83911
H         -7.16061       -0.61982       -1.23717
H         -5.73727       -0.04865       -2.16322
H          0.13521        5.55264        1.89980
H         -0.16256        5.35746       -2.38706
H          0.01825        6.69648       -0.29142
H          0.13428        3.61424        3.23581
H         -0.77328        2.23103        2.58148
H          0.99123        2.24485        2.49288
