64
CAM-B3LYP: S0 = -1269.913453; S1 = -1269.81002407; ADC(2): S0 = -1266.5870294; S1 = -1266.5173841
O          0.01854       -1.52320        0.06428
N          4.75361       -1.68353        0.20760
N         -4.70473       -1.87982       -0.10956
C         -0.03726        1.31147       -0.03248
C          1.19049        0.59192        0.01612
C         -1.23476        0.54359       -0.04915
C          1.18371       -0.82894        0.07263
C         -1.17294       -0.87758       -0.00621
C          3.61293       -0.95000        0.13168
C         -3.59377       -1.09887       -0.08329
C         -0.06499        2.79013       -0.09266
C          2.33755       -1.57820        0.12829
C         -2.29564       -1.67402       -0.02000
C          2.47516        1.20570       -0.01097
C         -2.54260        1.10590       -0.08141
C          3.63529        0.47946        0.04435
C         -3.67217        0.33146       -0.09621
C          4.65698       -3.14729        0.21808
C          6.05891       -1.03995        0.10934
C         -4.54730       -3.33751       -0.07148
C         -6.03463       -1.28489       -0.03723
C          0.23691        3.56313        1.04601
C         -0.39964        3.42125       -1.29651
C          5.96180       -3.89818        0.40424
C          6.49309       -0.76881       -1.32783
C         -5.81998       -4.14801       -0.22741
C         -6.46697       -0.94723        1.38609
C          0.20635        4.95453        0.92883
C         -0.42443        4.80806       -1.39199
C         -0.11651        5.57603       -0.27362
C          0.56124        2.91089        2.36298
H          2.22102       -2.65703        0.16579
H         -2.13701       -2.74724        0.02388
H          2.52295        2.29256       -0.08880
H         -2.63489        2.19213       -0.09017
H          4.58031        1.01450        0.01076
H         -4.63765        0.82962       -0.11118
H          3.96987       -3.43554        1.02939
H          4.17916       -3.47479       -0.72279
H          6.03796       -0.11036        0.69263
H          6.79234       -1.68054        0.60863
H         -3.84888       -3.62304       -0.87416
H         -4.05581       -3.61436        0.87867
H         -6.05815       -0.39143       -0.67451
H         -6.74532       -1.98304       -0.48959
H         -0.63288        2.80939       -2.17094
H          6.68125       -3.70995       -0.40421
H          6.44104       -3.66977        1.36648
H          5.73867       -4.97408        0.39806
H          6.57021       -1.70318       -1.90243
H          5.78034       -0.11113       -1.84576
H          7.47920       -0.28235       -1.33799
H         -6.54405       -3.96288        0.57777
H         -6.31137       -3.97174       -1.19447
H         -5.55222       -5.21292       -0.18652
H         -7.47188       -0.50081        1.37935
H         -6.50053       -1.84894        2.01468
H         -5.77676       -0.23214        1.85640
H          0.43305        5.56379        1.80672
H         -0.68064        5.28675       -2.33881
H         -0.13239        6.66589       -0.33429
H          0.62272        3.65544        3.16718
H         -0.20272        2.16983        2.64197
H          1.52440        2.37758        2.32864
64
CAM-B3LYP: S0 = -1269.913278; S1 = -1269.80984531; ADC(2): S0 = -1266.5868452; S1 = -1266.5172745
O          0.01477       -1.51508        0.05071
N          4.74866       -1.68454        0.22151
N         -4.70854       -1.86275       -0.15336
C         -0.03491        1.31943       -0.04850
C          1.19112        0.59760        0.00737
C         -1.23395        0.55414       -0.06879
C          1.18126       -0.82323        0.06481
C         -1.17531       -0.86701       -0.02067
C          3.60979       -0.94889        0.13872
C         -3.59647       -1.08340       -0.10023
C         -0.05919        2.79804       -0.11288
C          2.33330       -1.57466        0.12825
C         -2.29961       -1.66098       -0.03612
C          2.47706        1.20895       -0.01250
C         -2.54025        1.11905       -0.11190
C          3.63540        0.48049        0.05043
C         -3.67142        0.34668       -0.12922
C          4.64898       -3.14806        0.23425
C          6.05570       -1.04388        0.12736
C         -4.57462       -3.30545        0.07864
C         -6.03551       -1.25839       -0.19384
C          0.23505        3.57339        1.02614
C         -0.38245        3.42650       -1.32118
C          5.95112       -3.90120        0.42981
C          6.49608       -0.77609       -1.30853
C         -5.84710       -4.12034       -0.05734
C         -6.56593       -0.85375        1.17849
C          0.20834        4.96452        0.90506
C         -0.40361        4.81312       -1.42053
C         -0.10339        5.58343       -0.30167
C          0.54778        2.92367        2.34715
H          2.21450       -2.65325        0.16548
H         -2.14309       -2.73475        0.00212
H          2.52739        2.29569       -0.09038
H         -2.63017        2.20544       -0.12566
H          4.58164        1.01371        0.02260
H         -4.63587        0.84659       -0.15055
H          3.95641       -3.43320        1.04199
H          4.17616       -3.47656       -0.70882
H          6.03452       -0.11328        0.70905
H          6.78576       -1.68520        0.63060
H         -3.83780       -3.69889       -0.63905
H         -4.14135       -3.46086        1.08319
H         -6.00443       -0.39485       -0.87048
H         -6.71870       -1.97299       -0.66430
H         -0.60968        2.81275       -2.19587
H          6.67557       -3.71660       -0.37501
H          6.42532       -3.67125        1.39418
H          5.72577       -4.97664        0.42512
H          6.57341       -1.71160       -1.88124
H          5.78677       -0.11773       -1.83032
H          7.48327       -0.29177       -1.31569
H         -6.61859       -3.83411        0.66999
H         -6.27322       -4.05986       -1.06855
H         -5.59796       -5.17411        0.12938
H         -7.56510       -0.40561        1.07850
H         -6.65094       -1.72369        1.84545
H         -5.90770       -0.11958        1.66468
H          0.42927        5.57568        1.78311
H         -0.65098        5.28981       -2.37070
H         -0.11649        6.67315       -0.36540
H          0.60667        3.67021        3.14969
H         -0.22098        2.18637        2.62297
H          1.50904        2.38648        2.32079
64
CAM-B3LYP: S0 = -1269.9119837; S1 = -1269.80875843; ADC(2): S0 = -1266.5856046; S1 = -1266.5165067
O          0.01309       -1.50842        0.04781
N          4.74628       -1.68556        0.23675
N         -4.71152       -1.85007       -0.18392
C         -0.03063        1.32512       -0.06511
C          1.19344        0.60160       -0.00089
C         -1.23149        0.56239       -0.08538
C          1.18100       -0.81918        0.06288
C         -1.17556       -0.85834       -0.02703
C          3.60869       -0.94875        0.14718
C         -3.59748       -1.07059       -0.10995
C         -0.05213        2.80350       -0.13788
C          2.33144       -1.57234        0.13449
C         -2.30154       -1.64948       -0.04126
C          2.48044        1.21077       -0.01770
C         -2.53615        1.12925       -0.13996
C          3.63699        0.48042        0.05323
C         -3.66897        0.35817       -0.15714
C          4.64402       -3.14878        0.25626
C          6.05458       -1.04760        0.14159
C         -4.62959       -3.25204        0.24435
C         -6.02783       -1.23751       -0.32486
C          0.23351        3.58453        0.99937
C         -0.36414        3.42555       -1.35236
C          5.94421       -3.90316        0.45993
C          6.49769       -0.78731       -1.29480
C         -5.87714       -4.08444        0.01252
C         -6.64532       -0.78605        0.99602
C          0.20959        4.97501        0.87051
C         -0.38262        4.81168       -1.45942
C         -0.09108        5.58767       -0.34221
C          0.53471        2.94134        2.32624
H          2.21066       -2.65056        0.17557
H         -2.14740       -2.72378       -0.00283
H          2.53303        2.29711       -0.09942
H         -2.62408        2.21570       -0.16141
H          4.58431        1.01184        0.02761
H         -4.63239        0.85971       -0.18491
H          3.94828       -3.42873        1.06309
H          4.17378       -3.48124       -0.68673
H          6.03436       -0.11429        0.71896
H          6.78273       -1.68782        0.64900
H         -3.80489       -3.72957       -0.30384
H         -4.34874       -3.28011        1.31330
H         -5.94330       -0.39705       -1.02493
H         -6.68524       -1.96309       -0.81679
H         -0.58469        2.80729       -2.22559
H          6.67147       -3.72419       -0.34364
H          6.41585       -3.66872        1.42448
H          5.71703       -4.97823        0.46038
H          6.57404       -1.72563       -1.86304
H          5.79040       -0.13004       -1.82073
H          7.48581       -0.30490       -1.30282
H         -6.74119       -3.73823        0.59483
H         -6.15663       -4.11746       -1.05013
H         -5.66415       -5.11511        0.32831
H         -7.63245       -0.33684        0.81461
H         -6.78249       -1.63237        1.68426
H         -6.01681       -0.03973        1.50250
H          0.42398        5.59068        1.74702
H         -0.62118        5.28350       -2.41426
H         -0.10222        6.67704       -0.41199
H          0.59086        3.69226        3.12488
H         -0.23868        2.20851        2.60106
H          1.49408        2.40045        2.30946
64
CAM-B3LYP: S0 = -1269.8670644; S1 = -1269.81631464; ADC(2): S0 = -1266.5369169; S1 = -1266.5228245
O         -0.00418       -1.49465       -0.05790
N          4.74106       -1.68991        0.11683
N         -4.76258       -1.78812        0.01794
C         -0.04954        1.31169       -0.03253
C          1.18261        0.59884       -0.01707
C         -1.24456        0.57986       -0.04872
C          1.17549       -0.81244       -0.01481
C         -1.18845       -0.84725       -0.07539
C          3.59562       -0.95316        0.05901
C         -3.58522       -0.99712       -0.15142
C         -0.06402        2.79761       -0.01357
C          2.32482       -1.57393        0.01744
C         -2.32525       -1.62579       -0.08971
C          2.45805        1.20792        0.00244
C         -2.54360        1.16987       -0.00242
C          3.61718        0.47395        0.03520
C         -3.68139        0.40202       -0.01603
C          4.63462       -3.14771        0.04784
C          6.04195       -1.04444       -0.00637
C         -4.93716       -2.50996        1.25645
C         -5.42800       -2.24868       -1.18358
C          0.05898        3.49641        1.20153
C         -0.19707        3.49857       -1.21504
C          5.93272       -3.91188        0.23284
C          6.43772       -0.72735       -1.44337
C         -6.36088       -2.89695        1.61730
C         -6.39944       -1.19559       -1.72776
C          0.04609        4.89248        1.16629
C         -0.20666        4.88961       -1.22969
C         -0.08372        5.58702       -0.03269
C          0.19829        2.75804        2.50531
H          2.20364       -2.65239        0.00453
H         -2.21291       -2.71000       -0.09780
H          2.51307        2.29718       -0.01356
H         -2.61841        2.25618        0.04123
H          4.56302        1.00831        0.03822
H         -4.66065        0.87836        0.04512
H          3.93142       -3.47509        0.82972
H          4.17849       -3.43649       -0.91705
H          6.04484       -0.13394        0.60733
H          6.79216       -1.69586        0.45330
H         -4.29661       -3.41207        1.14683
H         -4.46686       -1.90955        2.04684
H         -4.63787       -2.43181       -1.92899
H         -5.95585       -3.18678       -0.97488
H         -0.28826        2.94025       -2.14943
H          6.66782       -3.70037       -0.55586
H          6.39651       -3.70931        1.20864
H          5.71008       -4.98714        0.19135
H          6.49625       -1.64411       -2.04862
H          5.71011       -0.05601       -1.92214
H          7.42293       -0.23942       -1.47281
H         -7.00011       -2.00761        1.70521
H         -6.81623       -3.59070        0.89872
H         -6.34823       -3.39890        2.59355
H         -6.86401       -1.59066       -2.64035
H         -7.19383       -0.97687       -1.00148
H         -5.87496       -0.26571       -1.98003
H          0.13942        5.44598        2.10343
H         -0.30732        5.42602       -2.17489
H         -0.08890        6.67869       -0.02993
H          0.21504        3.45350        3.35438
H         -0.63317        2.05331        2.65791
H          1.12577        2.16598        2.53432
64
CAM-B3LYP: S0 = -1269.8623; S1 = -1269.82692968; ADC(2): S0 = -1266.5335486; S1 = -1266.5267445
O         -0.00614       -1.49761       -0.02823
N          4.74092       -1.69297        0.13763
N         -4.76018       -1.79682        0.00739
C         -0.05246        1.30774       -0.04092
C          1.18166        0.59512       -0.01438
C         -1.24615        0.57706       -0.05215
C          1.17481       -0.81491        0.00268
C         -1.18962       -0.85103       -0.05520
C          3.59470       -0.95609        0.07361
C         -3.58486       -0.99883       -0.11982
C         -0.06569        2.79396       -0.04282
C          2.32405       -1.57683        0.03964
C         -2.32654       -1.62968       -0.06417
C          2.45626        1.20406       -0.00167
C         -2.54704        1.16889       -0.03186
C          3.61597        0.46996        0.03679
C         -3.68521        0.40287       -0.04022
C          4.63382       -3.15074        0.07909
C          6.04104       -1.04859        0.00466
C         -5.04167       -2.37625        1.29778
C         -5.40341       -2.26177       -1.20175
C          0.03819        3.50869        1.16470
C         -0.17713        3.47936       -1.25531
C          5.93179       -3.91390        0.26952
C          6.43323       -0.74434       -1.43616
C         -6.40571       -3.00653        1.49112
C         -6.25510       -1.16335       -1.84919
C          0.02795        4.90419        1.11118
C         -0.18464        4.87016       -1.28842
C         -0.08095        5.58311       -0.09880
C          0.15559        2.78671        2.47974
H          2.20243       -2.65533        0.03871
H         -2.21642       -2.71417       -0.06101
H          2.51168        2.29308       -0.02853
H         -2.62101        2.25582       -0.01060
H          4.56169        1.00456        0.03402
H         -4.66456        0.88171       -0.00470
H          3.93098       -3.47252        0.86368
H          4.17715       -3.44718       -0.88335
H          6.04556       -0.13240        0.60992
H          6.79294       -1.69534        0.46826
H         -4.22560       -3.11102        1.46658
H         -4.84284       -1.58392        2.03767
H         -4.59550       -2.54819       -1.89365
H         -6.01629       -3.14064       -0.97654
H         -0.25300        2.90883       -2.18368
H          6.66653       -3.70896       -0.52126
H          6.39624       -3.70313        1.24329
H          5.70907       -4.98946        0.23710
H          6.49066       -1.66661       -2.03314
H          5.70402       -0.07786       -1.91927
H          7.41810       -0.25617       -1.47273
H         -7.21428       -2.30309        1.24782
H         -6.54207       -3.92348        0.90287
H         -6.51191       -3.28127        2.54870
H         -6.71146       -1.57444       -2.75867
H         -7.05983       -0.83697       -1.17658
H         -5.64300       -0.29737       -2.12800
H          0.10714        5.46980        2.04238
H         -0.26845        5.39426       -2.24214
H         -0.08445        6.67474       -0.11046
H          0.17263        3.49338        3.31953
H         -0.68613        2.09444        2.63337
H          1.07513        2.18354        2.52550
64
CAM-B3LYP: S0 = -1269.8614508; S1 = -1269.83110043; ADC(2): S0 = -1266.5328286; S1 = -1266.5285922
O          0.00957       -1.50806        0.00131
N          4.75764       -1.68977        0.17069
N         -4.73934       -1.82680       -0.02841
C         -0.04439        1.29640       -0.05510
C          1.19230        0.58750       -0.01347
C         -1.23571        0.56267       -0.06286
C          1.18926       -0.82176        0.02154
C         -1.17522       -0.86547       -0.03955
C          3.60933       -0.95627        0.09594
C         -3.56858       -1.01842       -0.09775
C         -0.06113        2.78239       -0.08060
C          2.34033       -1.58047        0.06816
C         -2.31008       -1.64731       -0.04493
C          2.46497        1.19964       -0.00660
C         -2.53852        1.15164       -0.07170
C          3.62684        0.46888        0.04215
C         -3.67549        0.38359       -0.07755
C          4.65409       -3.14815        0.12780
C          6.05600       -1.04364        0.03107
C         -5.16119       -2.28095        1.27376
C         -5.36194       -2.26267       -1.25744
C          0.02969        3.51587        1.11669
C         -0.16210        3.44912       -1.30435
C          5.95355       -3.90599        0.32917
C          6.44891       -0.75548       -1.41290
C         -6.45077       -3.06790        1.35359
C         -6.23719       -1.16192       -1.87344
C          0.01707        4.91037        1.04185
C         -0.17221        4.83926       -1.35885
C         -0.08158        5.57053       -0.17933
C          0.13640        2.81411        2.44352
H          2.22123       -2.65918        0.08145
H         -2.19996       -2.73149       -0.02523
H          2.51785        2.28835       -0.04736
H         -2.61504        2.23856       -0.07291
H          4.57110        1.00601        0.03403
H         -4.65592        0.86140       -0.06920
H          3.95063       -3.46321        0.91457
H          4.19993       -3.45655       -0.83213
H          6.05754       -0.12022        0.62528
H          6.80934       -1.68265        0.50306
H         -4.30193       -2.85358        1.67717
H         -5.18691       -1.37752        1.91009
H         -4.54532       -2.51003       -1.95122
H         -5.95805       -3.16063       -1.06407
H         -0.22747        2.86428       -2.22458
H          6.68928       -3.70817       -0.46251
H          6.41570       -3.68291        1.30130
H          5.73361       -4.98241        0.30860
H          6.50950       -1.68466       -1.99875
H          5.71830       -0.09691       -1.90466
H          7.43245       -0.26499       -1.45442
H         -7.29953       -2.51167        0.93208
H         -6.38082       -4.04444        0.85552
H         -6.67332       -3.25772        2.41175
H         -6.68363       -1.55815       -2.79434
H         -7.04917       -0.87068       -1.19344
H         -5.64277       -0.27673       -2.12819
H          0.08641        5.49026        1.96502
H         -0.24768        5.34857       -2.32125
H         -0.08710        6.66185       -0.20772
H          0.14813        3.53354        3.27251
H         -0.70726        2.12517        2.60139
H          1.05476        2.21058        2.50511
64
CAM-B3LYP: S0 = -1269.8622878; S1 = -1269.83239059; ADC(2): S0 = -1266.5334492; S1 = -1266.5293703
O          0.02729       -1.52003        0.03044
N          4.77565       -1.68844        0.20374
N         -4.71751       -1.85611       -0.06207
C         -0.03321        1.28321       -0.07033
C          1.20516        0.57800       -0.01390
C         -1.22261        0.54624       -0.07352
C          1.20540       -0.83065        0.03991
C         -1.15898       -0.88116       -0.02347
C          3.62574       -0.95849        0.11796
C         -3.55131       -1.03993       -0.07512
C         -0.05342        2.76854       -0.11925
C          2.35820       -1.58595        0.09693
C         -2.29187       -1.66589       -0.02394
C          2.47632        1.19311       -0.01352
C         -2.52647        1.13155       -0.10914
C          3.63996        0.46577        0.04599
C         -3.66206        0.36114       -0.11134
C          4.67546       -3.14744        0.17849
C          6.07274       -1.04105        0.05883
C         -5.28940       -2.18398        1.22106
C         -5.31331       -2.25996       -1.31481
C          0.02975        3.52059        1.06705
C         -0.14966        3.41628       -1.35356
C          5.97641       -3.89978        0.39065
C          6.46798       -0.76954       -1.38774
C         -6.47255       -3.12594        1.23571
C         -6.24722       -1.17863       -1.88015
C          0.01440        4.91374        0.97075
C         -0.16253        4.80539       -1.42950
C         -0.07950        5.55489       -0.26091
C          0.13144        2.83952        2.40500
H          2.24150       -2.66463        0.12521
H         -2.18070       -2.74937        0.01181
H          2.52679        2.28129       -0.06902
H         -2.60557        2.21806       -0.13190
H          4.58294        1.00504        0.03190
H         -4.64300        0.83757       -0.12899
H          3.97176       -3.45463        0.96817
H          4.22319       -3.46856       -0.77816
H          6.07089       -0.11041        0.64171
H          6.82666       -1.67243        0.54009
H         -4.45021       -2.55777        1.83540
H         -5.53526       -1.20985        1.68987
H         -4.48637       -2.43728       -2.01473
H         -5.86489       -3.19461       -1.16223
H         -0.20886        2.81722       -2.26503
H          6.71280       -3.70964       -0.40231
H          6.43667       -3.66407        1.36069
H          5.75900       -4.97689        0.38260
H          6.53198       -1.70564       -1.96210
H          5.73683       -0.11877       -1.88899
H          7.45044       -0.27724       -1.43323
H         -7.32784       -2.73327        0.66921
H         -6.21370       -4.12133        0.84857
H         -6.79844       -3.25367        2.27622
H         -6.67714       -1.55806       -2.81591
H         -7.06993       -0.95637       -1.18705
H         -5.69880       -0.25529       -2.09986
H          0.07787        5.50789        1.88524
H         -0.23410        5.29972       -2.39999
H         -0.08718        6.64563       -0.30607
H          0.13881        3.57166        3.22284
H         -0.71212        2.15210        2.56982
H          1.05014        2.23802        2.47978
