64
TDDFT_TICT3_a
O	3.2765506269248243	3.4442054572460084	-0.08303762839436533
N	0.0	0.0	0.0
N	6.189021814103552	7.205076706092131	7.382299200004504e-16
C	5.361614727021991	1.671300014068451	-0.7006554915625048
C	4.0232856660024465	1.203626185353597	-0.5449553803976976
C	5.615381414850492	3.0376891643692927	-0.5381024659041103
C	2.996034119319066	2.116544549693069	-0.2310369273635605
C	4.531664619917304	3.9161713530767432	-0.22530506279227497
C	1.2938277245718688	0.3898785369073941	-0.19097465355677656
C	6.008045104997988	5.805572716987607	-0.18675169788478674
C	6.459032985899624	0.7224660774014364	-1.0237310857025743
C	1.6781427696996867	1.7452147199316306	-0.06381735321701448
C	4.712990386159153	5.271364093273964	-0.05269830412230351
C	3.624965414701302	-0.14338748626475348	-0.6902159763197981
C	6.911796401671919	3.629663072778768	-0.6508593402320715
C	2.3206580780537838	-0.5414176163326757	-0.5259341802662775
C	7.105231143718109	4.97777577680047	-0.48266689132956897
C	-1.0066366489585516	1.03166776867851	0.24841600463013916
C	-0.40957613248531455	-1.3667228664460953	-0.2947397517365813
C	6.503317535644683	7.666845397549827	1.330048296921726
C	6.139203633801339	8.084951892026098	-1.1449479353481689
C	7.0992067383742254	3.510234159237904e-16	-6.918192317107598e-17
C	6.848923878871122	0.5466109405647139	-2.353928484057429
C	-2.402460455943682	0.5261489666747392	0.5640419740515584
C	-0.6501884286715471	-1.6322393253676628	-1.776000699387514
C	6.588659382954056	9.161426600753705	1.545678295125768
C	7.4904505870195	8.155784685001827	-1.8731776853672815
C	8.120021074419835	-0.8854350803524026	-0.3526318000153928
C	7.867572167257508	-0.3409300554405848	-2.685868444550903
C	8.503796936283935	-1.059119664382326	-1.679056428953961
C	6.694059646266342	0.17903999916552918	1.4380855714502299
H	0.9681047651766117	2.533010737380621	0.16681133331048786
H	3.8480393624305194	5.891897819440312	0.18042933248454623
H	4.382928941786764	-0.8842990808602778	-0.9477022025302204
H	7.759090153014693	2.98163754369492	-0.873213914774821
H	2.084313393846117	-1.5928490195796219	-0.663175045634197
H	8.108149468833053	5.398230879155584	-0.5658287328507039
H	-0.6655569431241899	1.6431689560909593	1.0986336775504981
H	-1.0563655604861864	1.7138636906311708	-0.6204733809647337
H	0.345295054692459	-2.0565349264119606	0.10546533237838544
H	-1.3184187227316122	-1.5828841706641905	0.27614619671558766
H	5.76125808851448	7.1901488218986005	1.9954730490133574
H	7.4520110468596235	7.159695729687981	1.5993881179885125
H	5.374849889778714	7.680380112560306	-1.8209223148778024
H	5.835622423624954	9.08429424485039	-0.8125736148126478
H	6.338330343938216	1.112087512261313	-3.1366823673125563
H	-2.851670530822599	-0.0326160859915588	-0.2685434152582141
H	-2.419165404004986	-0.1081324859267297	1.4616992792081749
H	-3.0484230454849457	1.3928923794015442	0.7614645041053418
H	-1.4496807297443004	-0.9863264157415763	-2.1682897225996824
H	0.25516713319534157	-1.4427241619987152	-2.3707590697304046
H	-0.9511147953594171	-2.6778706753003747	-1.9364875063061282
H	7.366726446170749	9.630657954708173	0.9284365625408689
H	5.629310882037079	9.661867261567481	1.3534008652422196
H	6.848720207180144	9.343763619437375	2.596531809299079
H	7.385684572914757	8.853156806122405	-2.7141028167662604
H	8.284102916612214	8.528914833268734	-1.2116982271946377
H	7.779878037808818	7.175678057907136	-2.2696696011545625
H	8.624511868383273	-1.4513109358556124	0.4338821746084848
H	8.160369204578755	-0.4724851050178685	-3.7290815186199637
H	9.303781769509907	-1.7598947708440407	-1.9255312665357849
H	7.32468749090075	-0.42264368094837124	2.105334058712175
H	6.775212217133146	1.2316686389500333	1.7490767896335304
H	5.647192421776277	-0.11975249413362758	1.59983780530664
