64
ADC2_TICT1_a
O	3.456306447372317	3.2865716559232983	0.003918865849508306
N	0.0	0.0	0.0
N	6.537773447849616	6.917434588651777	-2.783762453976204e-15
C	5.468851850676739	1.373948594326283	-0.6406290670085868
C	4.099476021715307	0.9960690708736598	-0.5120465197453206
C	5.784323096924845	2.775914195338827	-0.48143000735444064
C	3.1228870764452505	1.9589172452816541	-0.1633363573517914
C	4.746287713915363	3.6758242335408564	-0.14766991181107264
C	1.3239721222255552	0.3203788219101173	-0.13445395640436159
C	6.301581442899788	5.513452586091979	-0.13990107184481027
C	6.518299817173189	0.4058428386699637	-0.9807696823785538
C	1.7781514826538103	1.654801631746044	-0.00932444626218616
C	4.996803039068659	5.04442195413417	0.023999134924577656
C	3.637092153591509	-0.3368883090479763	-0.6249609572900823
C	7.084592206694055	3.291221188622402	-0.6322060913748412
C	2.3001198712744073	-0.6642535899321482	-0.46710737644454636
C	7.3490846446857	4.662095468654276	-0.48121095928728796
C	-0.9669980761071441	1.010270452959897	0.39535450591228427
C	-0.4496324943778965	-1.3802960671743658	-0.10260424220322702
C	6.318958253907424	7.556086976495118	1.2865597422899144
C	6.990071669809606	7.689841748486173	-1.1455731945240453
C	7.45430771744991	1.064233916492204e-15	1.0416432232283895e-17
C	6.592649601214097	-0.12143638839394923	-2.283048443544436
C	-0.9554928923888345	1.3416113147429667	1.8838156475056251
C	-0.21539533294779456	-2.2113670799389813	1.1536077250730863
C	7.523745488726904	7.2920997891094546	2.191162626599559
C	5.7930138550063175	8.008074735872016	-2.0430505017283633
C	8.459617899665291	-0.9056918978905063	-0.3683341114730873
C	7.599090841734991	-1.0281034936965845	-2.6269094987649244
C	8.538015648094824	-1.4183210343438712	-1.6672995744602437
C	7.352298999283271	0.5202014832901403	1.4079536763849683
H	1.1141690176383248	2.4754159841917662	0.25223360448421545
H	4.161952689418106	5.705713164268064	0.26503325255247284
H	4.357724266106646	-1.1208754942274413	-0.8657986398017038
H	7.891341602366979	2.607333455728508	-0.90405385571899
H	2.01719330215063	-1.7100358459074398	-0.5657540687519294
H	8.366156318955426	5.041733849595303	-0.6003679566192188
H	-0.7974725867553434	1.9184530035520027	-0.20190417361134536
H	-1.9591518168751128	0.6412035791203399	0.10443715160147277
H	-1.5220564657062396	-1.3527741614795954	-0.33652019615310885
H	0.03413619190609214	-1.849325547412507	-0.9709057390458463
H	6.166626662478248	8.629601098793204	1.1146437542483743
H	5.410184787500284	7.121017744926737	1.7249896529905022
H	7.471632365139186	8.602928138724272	-0.7719352822448705
H	7.72555641192299	7.082812329545621	-1.6899204399112566
H	5.8563084279947955	0.19674051681614113	-3.02520489236924
H	-1.228905379723419	0.464567930376666	2.4820142305491495
H	0.036936734682728296	1.678605934995861	2.2079125351686444
H	-1.6789243662467432	2.1396038083421116	2.099825933407206
H	0.8469784297339451	-2.2261018644504063	1.4267045159030318
H	-0.7799774128850481	-1.807485644034506	2.0023891291740914
H	-0.5434475801477027	-3.2466715511392312	0.9893787855135135
H	7.661970166917922	6.215247314895157	2.3378509594566665
H	8.436313503096295	7.721508895876143	1.7608068571252202
H	7.3432251630645515	7.76179119974045	3.165511197848948
H	6.144303687661442	8.580058111724425	-2.9102174909109535
H	5.324675721600479	7.082657677043174	-2.396176432316389
H	5.051037613439051	8.610427239707091	-1.5053089844037033
H	9.183856659092056	-1.2294289838352992	0.3833439932792161
H	7.649364480111225	-1.4288796110935529	-3.6410010867719778
H	9.326881318603254	-2.126455579353107	-1.9264669618137773
H	8.019759598357036	-0.034262364578919235	2.0804352619934856
H	7.62392230581417	1.5850753184818287	1.4680892884682064
H	6.325134411561486	0.42395779677570616	1.7861550832555089
