64
ADC2_LE1_a
O	3.2063046701384805	3.5298003786833534	0.04960538932576941
N	0.0	0.0	0.0
N	5.985400301787819	7.397390984310235	3.479948825737139e-15
C	5.365512641706332	1.7843562865353249	-0.6566866236987101
C	4.005652248805413	1.302200605117824	-0.5093602007259878
C	5.552467406889969	3.2078688308718455	-0.5181299299062243
C	2.9790762176407073	2.197583783785791	-0.14539696929175086
C	4.462209916900926	4.032784900523503	-0.15781318148364487
C	1.3101073538891577	0.42639142031975985	-0.15635526743870654
C	5.845472543585548	6.0365202353029765	-0.1603602595579227
C	6.469102622775667	0.876914897964477	-0.9864756995677221
C	1.6548406979972705	1.7830365103253094	0.01281000916183698
C	4.588681204671509	5.41146858357727	-0.0026058019099833483
C	3.645171553316762	-0.04810258481198359	-0.6976408835700757
C	6.806253182151206	3.8424303010610656	-0.6677630604123033
C	2.329782119964259	-0.4817434605611446	-0.537423401366425
C	6.954648069262113	5.216341420788787	-0.5055648841634334
C	-1.094307234468551	0.9512106622851563	0.15571294049759138
C	-0.3104632760245697	-1.4208440404986469	0.1462010176777892
C	7.286661485135917	8.05351685232553	-0.06555229906059151
C	4.839661503599185	8.262150816917684	0.2502471926878525
C	6.980476089476512	1.8913542837070596e-15	-8.813712869750942e-17
C	7.019039596907848	0.8802140356590573	-2.282262948888873
C	-1.3864317339319998	1.2992464576201856	1.6155492145352337
C	0.20701347109567178	-2.020213774618688	1.4535424999327538
C	7.674613303767342	8.434407955312714	-1.4925704176292807
C	4.500424088422914	8.365143878799302	1.7361804655201591
C	8.02116906971008	-0.8706002954238099	-0.35698218659980296
C	8.061225544799852	0.00907774637926886	-2.6136649574399398
C	8.561304633042	-0.8711090250958856	-1.6479859983847387
C	6.42024813912001	0.015048091404451519	1.3981908951840414
H	0.9350615029030038	2.544571549161494	0.32052223076276504
H	3.6886604209948595	5.956695644378528	0.28837224195753647
H	4.416640791999342	-0.7613498608172239	-1.0123880132245455
H	7.67811025562114	3.23321006739885	-0.9328864373214484
H	2.1068967843525632	-1.5350826124865389	-0.7226274235539224
H	7.9478594262055955	5.645593317678293	-0.6544697514224398
H	-0.8578116783283981	1.8535161028950942	-0.4292247769186891
H	-1.985598356542683	0.4987108200658669	-0.3116792480216187
H	-1.4067132595575442	-1.5128833743266685	0.0946992521968267
H	0.08915415705351497	-1.9705952602732197	-0.724803680237283
H	7.224594731645417	8.955605205829558	0.5665757013089178
H	8.04570884312916	7.403700801692198	0.39829946894304497
H	5.091543702168779	9.25787933895675	-0.15252799063363817
H	3.978180779737866	7.900828017496779	-0.33457754702110815
H	6.610667647003193	1.5653858779371448	-3.0363097911686543
H	-1.7136237488897794	0.4089173229271067	2.176502121873659
H	-0.4939169595356529	1.7163507826827233	2.1104789589853397
H	-2.1967169477915447	2.0475485361111128	1.6634829579781307
H	1.3021114986269662	-1.930447104955035	1.5328340563074188
H	-0.24877706557915413	-1.5163143708780626	2.3206781439666124
H	-0.05814578195725534	-3.090901395324405	1.496093086797399
H	7.741053429190921	7.542568424074167	-2.136902909359732
H	6.928799747547727	9.121282698397094	-1.9268419494864955
H	8.653855921351187	8.94405013849696	-1.4960380379551481
H	3.6393579146714905	9.040454344248419	1.882524729542336
H	4.247322688114542	7.377419299702898	2.155139298278254
H	5.355632729697772	8.772300684939738	2.3011581916809307
H	8.42942838386273	-1.5531267661982393	0.39910226121101094
H	8.48003702567742	0.01455007929062915	-3.626790537248499
H	9.377391954625669	-1.558669868901999	-1.8984527411943326
H	6.3750513438812035	1.0443485099442933	1.796738589080091
H	5.394357389628784	-0.3972483584467938	1.4328904471990056
H	7.048231670251731	-0.5883660922540703	2.0763791840047183
