64
ADC2_TICT2_a
O	3.216993863091653	3.525351360405179	-0.01914899932705134
N	0.0	0.0	0.0
N	6.033687841097784	7.364151938967507	3.3254971119412926e-15
C	5.352230884046422	1.766572276539302	-0.7022597141106589
C	4.01325480105684	1.2942546557680594	-0.5677511554488374
C	5.567442676009858	3.1884119022672763	-0.5521889209504921
C	2.9750170424174947	2.179966099518725	-0.2011777902693697
C	4.470010388561109	4.009299869331687	-0.20164489237331237
C	1.288968160441779	0.42341950109264553	-0.2083120640451744
C	5.8875037872258424	5.954368844916226	-0.19499293196866957
C	6.469349040818732	0.862909443744611	-1.0030897901984246
C	1.6511155559210775	1.7835355979521885	-0.0641130200594
C	4.616142995172289	5.396136597412389	-0.05467213960238664
C	3.635836944252364	-0.0576956626722636	-0.7464631918162417
C	6.830441075055112	3.7942671538952673	-0.6838979190748243
C	2.3234383072225437	-0.47647140792736187	-0.6031060376432894
C	6.999016912884711	5.177682925155029	-0.5110664247211026
C	-1.019510892140365	1.009419007872943	0.26768555335191296
C	-0.4074690479472543	-1.3227253081318076	-0.450316747995346
C	6.840971020086853	7.85760162468121	1.1037974424080879
C	5.370282339298899	8.286482516224382	-0.9057877861488463
C	6.971906174266071	7.250759586368267e-17	2.894883136349571e-16
C	7.048869213176127	0.8614717167636161	-2.2852319072740643
C	-2.373984146887166	0.4601935639123527	0.6757075971305441
C	-0.6512483805701915	-1.3970787291217297	-1.9519982795638644
C	6.018468457978251	7.802944290453057	2.392372196520347
C	6.185078589750254	8.399573564134604	-2.195371423615619
C	8.033388299148127	-0.856427487700678	-0.326740554278187
C	8.10966951286737	0.0032109312405905342	-2.5874547352952404
C	8.602696117589263	-0.8596677998816741	-1.6041709740528751
C	6.37658788819633	0.007655382916198388	1.3816163409255062
H	0.9315721310752758	2.557576600525308	0.18978228682657605
H	3.7402293013086743	5.99193219503531	0.21043396863481117
H	4.400211938064941	-0.7759257510518295	-1.0519119580569203
H	7.68936135543499	3.169696584004962	-0.9352668705413492
H	2.1067765109453216	-1.5283397117447857	-0.7751909805814908
H	7.985975757385484	5.629886348401293	-0.6301535809288954
H	-0.6512645299612404	1.6414984988851558	1.0882957934196587
H	-1.137313368585292	1.6719950137476254	-0.6105552458981194
H	0.35250875955414507	-2.0499687848887227	-0.14054243113644388
H	-1.3117482667238434	-1.6080359157501607	0.09614970494903015
H	7.725338397370674	7.212081093480271	1.1860316911275541
H	7.154004614245743	8.88250166568066	0.8652733685551017
H	4.371197059877819	7.882283557967096	-1.1201547751507135
H	5.27446115184692	9.255248645424071	-0.3983878776300587
H	6.6435605836796015	1.5288215631539808	-3.0503088466603043
H	-2.8652724563948038	-0.0978256556770802	-0.1295722290849384
H	-2.2950919209486087	-0.18566498941337323	1.55890783627082
H	-3.026138119758976	1.3037951611139236	0.9345778291537782
H	-1.452150415459829	-0.7075762125082038	-2.25032419512953
H	0.2552705377927449	-1.128454247798029	-2.509403030703199
H	-0.9499567851787766	-2.4125031997871877	-2.245496349610635
H	5.130045694448116	8.441207974517113	2.3160211674682993
H	5.71064044371224	6.773174056385778	2.6048858430173487
H	6.637788007896632	8.165324122163645	3.2216103382481274
H	5.66851564355603	9.08313383412331	-2.879769490768538
H	7.185088659961256	8.800300667822896	-1.9910554112900072
H	6.276459657218067	7.419578500107785	-2.6764399455755035
H	8.428682570323065	-1.5267028703489423	0.44052553915941406
H	8.545021585155068	0.0038652100690181224	-3.5884774769143375
H	9.429153522063338	-1.5355808950544223	-1.8301170243811322
H	7.000760653203682	-0.5652511976234155	2.079769164460486
H	6.28468200758781	1.0336752587033282	1.7647826779195535
H	5.3685088661373825	-0.43128312445972944	1.3882118371227716
