64
TDDFT_TICT2_a
O	3.2817854243956255	3.439650478211341	-0.07459609163297348
N	0.0	0.0	0.0
N	6.210005550399623	7.194802860547806	1.711480067422238e-16
C	5.3640216906048295	1.6647337669530107	-0.696212679990353
C	4.025429414501235	1.198501450637506	-0.5389946465689944
C	5.619252704092969	3.0307173370810516	-0.5339555844657885
C	2.9991651923660796	2.112674170655172	-0.22529251674704498
C	4.537843009686752	3.909752160623113	-0.2168243308094616
C	1.2945671974554673	0.3882331717117525	-0.18855514204850107
C	6.01493679749842	5.799881523664941	-0.18514870495494426
C	6.459724849766433	0.7151423072009397	-1.0229341663349354
C	1.6805265787818837	1.7430593978991324	-0.06018225609904328
C	4.719633841662529	5.265326787824515	-0.045751128514842754
C	3.6256658839704694	-0.1480514551083983	-0.6846674775939933
C	6.914927612324343	3.622889472771265	-0.6564357970460764
C	2.320712834194341	-0.5444093209188039	-0.5220081388421025
C	7.110038354151328	4.970440753330693	-0.4897046270196906
C	-1.0059077834843824	1.03293526685752	0.24628138797221433
C	-0.41062639917696675	-1.3664830526418155	-0.29481149903059306
C	6.488985345013395	7.724996166039249	1.314379318207007
C	6.121255964141002	8.094224065807486	-1.1262415433929553
C	7.109247651356928	-5.394750426822539e-16	7.495577862178445e-17
C	6.8384156393737054	0.5311845095157647	-2.3552474358490687
C	-2.4032686950663384	0.5292895807232271	0.5580723685732586
C	-0.6489582862222294	-1.6323516057661545	-1.7763585960568788
C	5.20105016730857	7.973184458599767	2.1137017054377996
C	7.412767048682209	8.100479937274418	-1.956646007399135
C	8.128231760920944	-0.886386009424863	-0.35548775601545346
C	7.855464201047308	-0.3571356457135337	-2.6899942624405284
C	8.501134401687438	-1.0679555767322484	-1.6839544221370326
C	6.715340517578083	0.18751888661795954	1.440127021812553
H	0.9711888809956097	2.531527568799999	0.17029169395499227
H	3.8534395018498433	5.885383835629136	0.18077867756878047
H	4.383056493712736	-0.8897908484167653	-0.9414366045111019
H	7.760323546380861	2.975160087102951	-0.8869955567472361
H	2.0831994948637425	-1.595533974864808	-0.6595313512279426
H	8.112110124411048	5.391440329166985	-0.5788902826836613
H	-0.6662100701623472	1.6436653462675817	1.097629613173019
H	-1.052341039664028	1.7154709005984046	-0.6225097790146998
H	0.3428357361103878	-2.056892100905608	0.10698758248864706
H	-1.3206408171598845	-1.5813837090918625	0.2746780622385757
H	7.118100104117103	6.992818093622648	1.8375566754083654
H	7.044738470295209	8.665392502533289	1.1910258781208736
H	5.282477156042252	7.753481177813258	-1.7495914172798395
H	5.908237261377293	9.102313546544465	-0.7446473738589905
H	6.320561528736653	1.090990620795191	-3.1373115929254007
H	-2.8509465340191764	-0.028764628327508226	-0.2757916817930322
H	-2.423301231974069	-0.10504502580022701	1.4556142046732676
H	-3.0485890431060283	1.3968890826842875	0.753819820645702
H	-1.446830756144042	-0.9855100083931626	-2.1703936039975718
H	0.2577189905573613	-1.4444375620390983	-2.3696131482439577
H	-0.9510794645705524	-2.6776331892512695	-1.9368515601620773
H	4.5404734895928005	8.681105513641109	1.5945294947137014
H	4.66118413467269	7.036368462222101	2.2940598731955095
H	5.480293321872623	8.407546934308403	3.0821064495130135
H	7.287074233009449	8.821676936290471	-2.7742373592494913
H	8.273858179040221	8.41203889043205	-1.3496132209929355
H	7.610753189409117	7.1133700758519485	-2.3903503362691434
H	8.63991262171944	-1.4467299455180551	0.4303340199745596
H	8.139746423916876	-0.4949669971355036	-3.73474657731259
H	9.300012547465068	-1.7691978432921271	-1.9326656886165743
H	7.348467107404349	-0.41341176385249756	2.105677810677774
H	6.803075436559411	1.2412740699937321	1.7455260370009316
H	5.668497003830251	-0.10635418176214409	1.6108144635736819
