64
ADC2_LE3_a
O	3.185199449483458	3.5425265694059305	0.06647062354169282
N	0.0	0.0	0.0
N	5.9205135242663935	7.441360242671572	-2.8333879735511347e-16
C	5.360991129534669	1.8128355466957324	-0.6351364601858733
C	4.002934406285119	1.3244441605096386	-0.5032518074844233
C	5.533524653598505	3.240441764079727	-0.5035923104172998
C	2.9693118398624225	2.208600787727352	-0.13166544459775045
C	4.4376031870838295	4.053419215618084	-0.13695018336512624
C	1.3069203869707793	0.42947140669064215	-0.17593469409280532
C	5.8015642050616325	6.070725413409744	-0.1455393982931414
C	6.471526831824019	0.9157307253209147	-0.9656502236944041
C	1.6469974163182464	1.7849615609310676	0.013280458481742264
C	4.550955347489131	5.435712949021821	0.006666983754758909
C	3.6473124936688377	-0.0233773685739032	-0.7152646711671533
C	6.78299471849872	3.8843704426735672	-0.6383436481454698
C	2.335021007672007	-0.46602196104057103	-0.5691150531392615
C	6.91780397346767	5.260369603945798	-0.4866669496007513
C	-1.0274307894140435	0.9895861872474045	0.33289736121331787
C	-0.3883844075754936	-1.3437524805427707	-0.4075923084871379
C	4.742379490610548	8.206675338156165	0.4129607727441875
C	7.239151402521349	8.059827261281908	0.03646760120052542
C	6.953978881711797	-8.76707994308253e-16	5.4257028877329914e-17
C	7.059009253235884	0.9658082444387054	-2.2438674441099207
C	-2.390102637340149	0.42140582856273007	0.6789025747912297
C	-0.6273599861311654	-1.4455265861755149	-1.910736664655862
C	4.909070619186668	9.713961920043278	0.4000920254148048
C	7.914633877803974	7.9114508155791174	1.3956464734060368
C	8.001154928953358	-0.8600108786445353	-0.3611436966819386
C	8.106403192784148	0.10388526587331093	-2.579064899436986
C	8.576594065288218	-0.8141527927061695	-1.635005952118452
C	6.361797667979319	-0.03437334882416379	1.382687217182658
H	0.9181839741733319	2.5460570657931347	0.28073158541323806
H	3.647371237664832	5.9714063382365	0.28676783201099
H	4.4234637783802535	-0.7250812916400671	-1.0282172488194752
H	7.658040059420846	3.281809604241248	-0.8879330622150808
H	2.1274958064250016	-1.517069048868611	-0.7558147177015615
H	7.910081064752554	5.689998478791003	-0.6024795492508456
H	-0.6576111007164368	1.5667597255756924	1.1923636339294432
H	-1.1184099537463827	1.6981070662517541	-0.5099003976140195
H	0.38822190852508226	-2.045196050367833	-0.08198406425452383
H	-1.2911889421353904	-1.6195447399373466	0.14433585247226016
H	3.9229221364429248	7.939606027256317	-0.2697778456193327
H	4.43717104727982	7.871889973137497	1.4207637032944274
H	7.8526826899471835	7.622770539081423	-0.7598108863651165
H	7.126938612092618	9.116429879690358	-0.222212579838978
H	6.673175232184456	1.6775500486592771	-2.978281872372288
H	-2.8568196843674816	-0.10068360461229485	-0.163787951738361
H	-2.3417100120817875	-0.25530116212384973	1.5403488715069666
H	-3.045503356915478	1.2580733455345816	0.9503149274546788
H	-1.437475500270853	-0.7741962804622823	-2.222582124455565
H	0.27813377221525143	-1.1790309568577992	-2.4695205278287484
H	-0.9121738270564714	-2.4721887528223974	-2.1754640042990374
H	5.657375047814278	10.062735047616904	1.1205350067340245
H	5.16985641322137	10.085527693099683	-0.5981062383077972
H	3.948522676296171	10.163023685057084	0.6812239533504016
H	8.904332782684694	8.386457555989772	1.3775915384453135
H	7.318318190073672	8.392764793169718	2.1812418731452428
H	8.040233157841111	6.853348096692943	1.656577146431921
H	8.384079910389502	-1.5684329285054581	0.37752486305445415
H	8.55101232956648	0.14637611509380571	-3.5750071919393633
H	9.39358962790329	-1.492044625606974	-1.8876988067354352
H	6.985945035015863	-0.6303722957353693	2.060891139761541
H	6.275256746777683	0.9792404497129858	1.7984678129745653
H	5.352837278081258	-0.47330799519131855	1.3823916363603375
