64
TDDFT_LE2_a
O	3.1745929507827038	3.5208961176793525	-0.045089376478544926
N	0.0	0.0	0.0
N	5.962265948363936	7.352744265870934	-1.261802143323544e-14
C	5.32930003739103	1.776892517711989	-0.6452798165138177
C	3.998893264208013	1.2933179005160524	-0.5005115797366999
C	5.528765604003742	3.1775173108397636	-0.4893440160937498
C	2.9406257417621418	2.192635922140493	-0.191154530670769
C	4.425691421697458	4.025273520516236	-0.18909637813917357
C	1.282076134079332	0.41383655159388155	-0.17449792032593767
C	5.824832106034199	6.013306425673857	-0.1522251389511091
C	6.450823966863996	0.8682299578376049	-0.9738583290234584
C	1.6359446820402082	1.7828983724859377	-0.03265225352645617
C	4.555247929622119	5.385339165771519	-0.026537754966812935
C	3.624503766636719	-0.07016151173848016	-0.6692755262340069
C	6.7958596774056135	3.8192331586705435	-0.5945791837929478
C	2.3327523905598206	-0.4987027247991824	-0.5151780802269365
C	6.946501593138912	5.172193048171842	-0.437875661363376
C	-1.036487153227332	1.0006447184898122	0.27528722945887923
C	-0.37451770696371817	-1.3870571739694322	-0.2520142919252218
C	4.843147554508475	8.206666036276129	0.3794337780844229
C	7.238210641757616	8.028797229822398	-0.20818031160738662
C	6.982482126131722	1.968808694959859e-16	-1.5292082166555834e-16
C	6.986649871427495	0.8796955227841559	-2.2669101302693186
C	-2.424618435014611	0.4588489312597437	0.5592485604801192
C	-0.6202878855225151	-1.688962688221211	-1.7270256340777306
C	4.025112444559346	8.69122963921436	-0.8127624035794994
C	8.105787589345455	8.073944622306367	1.044568360287765
C	8.033106797889115	-0.8435252382905343	-0.36781916232921924
C	8.03296125313975	0.03186776779474792	-2.612738185554043
C	8.554789131069397	-0.8348778092452623	-1.657866935517672
C	6.449540167560529	-0.005645529825679354	1.40743059244294
H	0.9046027921074328	2.5512078622319643	0.1990436914655889
H	3.650088938721788	5.947952870337855	0.18521799906465863
H	4.401546988210107	-0.7861922014093412	-0.9396134296388392
H	7.669268121210478	3.200166978092029	-0.8008240357900164
H	2.1183627879824463	-1.553033818437238	-0.666688707288857
H	7.94434054804862	5.596663112006314	-0.5143951435300722
H	-0.7103333079021807	1.5960022284108215	1.1428297364758386
H	-1.086028250510117	1.7002419064704035	-0.5785931847453969
H	0.40579898696593486	-2.042564800391114	0.15574661646927965
H	-1.2736841315139837	-1.6078680047352811	0.3313340393546292
H	4.208732244607912	7.67552879964173	1.1019659386600935
H	5.262245743313892	9.066221179864527	0.9218191676634054
H	7.77160879106263	7.5497682269240585	-1.0400066629916214
H	7.010253584916026	9.05020936024678	-0.5451852039220965
H	6.565185383325563	1.5589893690216	-3.011467187533512
H	-2.8472216803629453	-0.0969132880652498	-0.28879827248372925
H	-2.4475021900223055	-0.18286766158139506	1.4511275335123957
H	-3.0894272684071673	1.3118455263514515	0.7536918951799284
H	-1.4395740139506334	-1.074150008586632	-2.126996506088197
H	0.2763815395284254	-1.492536267784075	-2.3322436185651956
H	-0.8961030447657411	-2.7457441218204326	-1.8547505653464864
H	4.650927659572695	9.257254781297668	-1.5179075015418708
H	3.575246167486008	7.849923984530384	-1.3591408686730118
H	3.2160380410927774	9.353115671077473	-0.4717887869524715
H	9.038271035535399	8.618779460199933	0.838642348151812
H	7.58770208929605	8.588661903685582	1.8668248175844813
H	8.366484637203772	7.06283416446753	1.38846975955636
H	8.45674201563492	-1.5171479396837624	0.38054195513022954
H	8.436866708401173	0.046644287953848576	-3.626589651412355
H	9.376475154614651	-1.5057801243243707	-1.9156273911366006
H	7.067452492687275	-0.6350868124252683	2.0607670218151597
H	6.428696408830476	1.0092350312317815	1.832045202811799
H	5.418439268305441	-0.39047202372942064	1.4519300233056147
