64
TDDFT_LE3_a
O	3.170597758193445	3.5233128867125374	-0.031130832836105765
N	0.0	0.0	0.0
N	5.941036012546297	7.3693659809647825	-9.396858497150497e-16
C	5.327691903675436	1.7847014789500322	-0.6408828349938653
C	3.996910020723702	1.2987437871161778	-0.498028113570495
C	5.523792075670487	3.1847009170121634	-0.4817469658843899
C	2.9391422640019917	2.1955793277364224	-0.18361704283297664
C	4.419970465395112	4.03126711426474	-0.18120524193181015
C	1.2816929571681306	0.4145650641678692	-0.17450434469692314
C	5.812739935519588	6.024687489124619	-0.1426685425313737
C	6.450684021566713	0.8781207020946457	-0.9693669044787474
C	1.6347701687546015	1.7837184783756161	-0.02611416637438988
C	4.546516794098391	5.3919472130351265	-0.015585111645879288
C	3.623365903010285	-0.06412097973746841	-0.6738212962729594
C	6.789945809925615	3.8289844532590256	-0.5789106765074122
C	2.332179955557852	-0.4952945063073073	-0.5210992455118113
C	6.937339580503481	5.181176789465041	-0.41846173195944464
C	-1.0372861260561808	0.9988118222722283	0.2800064463286381
C	-0.3732571133170397	-1.387208096317676	-0.2528519653886849
C	4.7586490975181555	8.160107883631122	0.357997332904661
C	7.256449435973224	7.9988070586192705	-0.034900545560272195
C	6.974593697044367	1.6761321442897821e-15	2.0265378175509308e-16
C	6.996209309997834	0.9012719814825471	-2.2582988927243837
C	-2.42507816281035	0.45485048935635425	0.5614185091477311
C	-0.6225007274554046	-1.6874255566448582	-1.7277132741665453
C	4.954636106884776	9.663517960532364	0.4079074079629771
C	7.9976007265897024	7.927183784892869	1.29654401662782
C	8.02683981158851	-0.8412519155980406	-0.36837244442327616
C	8.043931482674026	0.055508090105756566	-2.6047020001857164
C	8.557757400171942	-0.8211158188053332	-1.6545113281099135
C	6.433218282600353	-0.01783820690890948	1.404128408028215
H	0.9030868460224701	2.5502346632026325	0.21044474412763187
H	3.6411041941672906	5.944672004279459	0.2158674919815514
H	4.400817470601221	-0.7777464801313067	-0.9493350575863306
H	7.66566350419063	3.2128906621308695	-0.7839437953138625
H	2.1185881342071253	-1.5488355366050788	-0.6788613230786007
H	7.935639112350134	5.602986991959418	-0.49593815007752606
H	-0.7115386512494701	1.5905606226692213	1.1501466689610436
H	-1.087184723531684	1.7018892907010934	-0.5708782744764994
H	0.40940316833954726	-2.041825106962444	0.15177855425700376
H	-1.270616465410233	-1.610025207967919	0.33251394505684884
H	3.966443912063057	7.935843710647823	-0.37393148387684005
H	4.383860892583332	7.8089694974742105	1.3362982939661594
H	7.847328622396717	7.535965177806685	-0.8358156715713735
H	7.125969530394114	9.042795126270502	-0.33603458222653537
H	6.5810135463145425	1.588195391852968	-2.999353925221646
H	-2.846705624951288	-0.09846383028222055	-0.28870983856953747
H	-2.4480943254913434	-0.18967394141764468	1.4512503119194098
H	-3.0905910877856093	1.3067649572353304	0.7581909738864686
H	-1.4441808780883498	-1.0738258031544234	-2.1245691553895645
H	0.2720663215923428	-1.4885000659771876	-2.3351716166087506
H	-0.8965514971310627	-2.7446164017591803	-1.855809358605713
H	5.690609230583617	9.972700447469007	1.1625085901914711
H	5.249187621619545	10.078467278947182	-0.5661446999452872
H	3.994592963085081	10.122764068777634	0.681402368462759
H	8.979679531943292	8.413884818068498	1.2079747507448717
H	7.436239677847871	8.438932333611204	2.0916315330806627
H	8.157598546712745	6.886174537978722	1.6120683073569373
H	8.444661431910268	-1.5221075709826757	0.3767149673154134
H	8.455209710635117	0.07961798073730775	-3.6154095160773916
H	9.380517389057715	-1.490530021615591	-1.9127311074715887
H	7.050269540977708	-0.648955608075487	2.056679281077717
H	6.405092215246475	0.9939568647511808	1.8355691059028572
H	5.4037424442278965	-0.40792360738370037	1.4401748052649703
