64
TDDFT_TICT1_a
O	3.309853305685303	3.415072042592166	-0.054202794516990976
N	0.0	0.0	0.0
N	6.269112234490413	7.146306320916535	-8.300651922667762e-16
C	5.373498389572331	1.6239634700015417	-0.6920309853468419
C	4.033002175418223	1.1675813020962198	-0.5260350485967505
C	5.641283884290638	2.987167347541594	-0.526765364892253
C	3.015970906002764	2.09010529411987	-0.2010684798917048
C	4.56885151979096	3.875186541447559	-0.20501095688168663
C	1.3012541789183818	0.3774917835327292	-0.15033804806411505
C	6.064978550677029	5.750043544168645	-0.16405862886800743
C	6.460256808908028	0.66584658951471	-1.02440835291894
C	1.6996732171294657	1.7279001602438036	-0.013028968347894809
C	4.764133542129908	5.228044571820224	-0.028025721914459813
C	3.6258144437185873	-0.17826703750054995	-0.6513456742033779
C	6.942130657465182	3.56723224607318	-0.6506586923070642
C	2.3204164946058317	-0.5666877734546072	-0.4682436667700326
C	7.151604124680444	4.911368007414115	-0.47349898596489337
C	-1.0212689746621277	0.9684985004482932	0.37316627764975563
C	-0.39683499900908986	-1.3989286587555565	-0.10263738931712822
C	6.5898695069161475	7.683861586985283	1.3013245114950227
C	6.14832963394879	8.038953844676882	-1.1291416698762495
C	7.157797633244881	2.670155993480007e-16	-8.561227756774693e-17
C	6.781307553884347	0.42398453601269465	-2.3624317227533163
C	-1.0674311471428555	1.302108292629274	1.8606308673956165
C	-0.14715242141757898	-2.224363868274466	1.154762478815016
C	8.075740840177287	7.503971626499078	1.6439346461466906
C	4.689725652717344	8.45398525356884	-1.3735565374885426
C	8.167210763405501	-0.8956196702633576	-0.35935290398394093
C	7.790237815109426	-0.47221254846007754	-2.7010630854234003
C	8.484431317137007	-1.1333378342253142	-1.6934749156563493
C	6.8206077205159765	0.246877672748327	1.4455728801393044
H	0.998600657926768	2.516791194180492	0.24309522366504763
H	3.908468832988854	5.8520754510465025	0.22605625064485785
H	4.3785080518211394	-0.9275581177335473	-0.8997607968727301
H	7.778309293261947	2.9141039147854757	-0.8992939335388814
H	2.077202904781303	-1.6207263064225945	-0.5707337354028515
H	8.153390898826828	5.3269219395038	-0.5878071826228194
H	-0.8806407079912691	1.884767028374724	-0.2199569304526432
H	-1.9895031920306334	0.55752245603488	0.05625956534453949
H	-1.4674667452033354	-1.412963925628774	-0.3485285601038387
H	0.10984793779892828	-1.8542411591984953	-0.9662242264198023
H	6.323254082748746	8.749735293903262	1.3078106633557072
H	5.973182529900437	7.147462509551773	2.0362751792059255
H	6.765650360718745	8.926265102641363	-0.9290835463053544
H	6.53870364892863	7.510888558502267	-2.0091287744294015
H	6.226089910873617	0.9454558236446179	-3.145319442024806
H	-1.303722290043785	0.41251801018043516	2.460789201341058
H	-0.10568607984968449	1.6997337347278902	2.2152718238715052
H	-1.8422025854615112	2.057564275793009	2.057493862467715
H	0.9154557890461705	-2.217759440943719	1.4370837483124836
H	-0.7233109582648181	-1.8379262476136795	2.0070658673675195
H	-0.4484020709266669	-3.2691554565663377	0.9897576568878981
H	8.345822210454115	6.442766604859206	1.6948726755717722
H	8.71691996784235	8.008928026093667	0.9084492487028403
H	8.254762129016394	7.956902174559939	2.627388703779112
H	4.672893675585939	9.155934149680222	-2.217027382019556
H	4.0696757050235846	7.586765958443231	-1.6287151349996005
H	4.266890733419975	8.959256891138079	-0.49437200638549433
H	8.714988460777274	-1.4191650593284204	0.427523783216024
H	8.030473545632791	-0.6547106093267867	-3.7500094971231577
H	9.277223522417263	-1.8403148547012738	-1.9454021585198493
H	7.464627094254157	-0.3440967963025934	2.1096120464938686
H	6.941733191885717	1.3085302075983167	1.7099296614974722
H	5.774493853773072	-0.017092074465231456	1.6630335599005475
