64
ADC2_TICT3_a
O	3.237721016265108	3.5103751669762273	-0.03839100563988491
N	0.0	0.0	0.0
N	6.061213660380973	7.338707447239198	1.0803437775019636e-16
C	5.363854335898422	1.7413812184615973	-0.719544262746208
C	4.026037016095768	1.2721521840971182	-0.5664595015766082
C	5.587596636065589	3.16218770921422	-0.5615169216855974
C	2.988900622372742	2.16554642375986	-0.21695659678351314
C	4.492577355617224	3.9887152250736757	-0.2206685363925373
C	1.2923479446628512	0.4173593940558271	-0.21052505956859224
C	5.9181588959443285	5.929641705845396	-0.2123772302570524
C	6.478024593325113	0.8324331733542423	-1.0175256226253906
C	1.666075920793616	1.7738517788990396	-0.055790781707957
C	4.645759435320217	5.374685992558151	-0.06541141432075155
C	3.6400688165340123	-0.07755567301440178	-0.7470240464448242
C	6.852407063813488	3.763507397597703	-0.6996309694757159
C	2.3273238585405682	-0.49167838635985384	-0.5867545668123784
C	7.028129965592731	5.146015312942213	-0.5205757382458025
C	-1.014008292682524	1.0166000708967697	0.27372113552955796
C	-0.42360018756186973	-1.3104316355590575	-0.47789494586288045
C	7.055148338767365	7.797046702829857	0.9682675601544866
C	5.4034583012218365	8.249540887287115	-0.9254262929596564
C	7.002701667193511	-1.0253611382509955e-15	4.48040128641281e-16
C	7.032824790798987	0.7992749383971168	-2.3103685275372823
C	-2.3735387405428177	0.4760895146067456	0.6889551746184305
C	-0.6637720665360357	-1.3487743740077462	-1.9843463670427606
C	6.84248178472285	9.210787089896323	1.4817291139474578
C	6.321752011127931	8.49225100043925	-2.1308232322971965
C	8.0624003113832	-0.8611252942290974	-0.32333734495896505
C	8.09299014924421	-0.0622851223671668	-2.6091049588628015
C	8.608673713701265	-0.8960364614414017	-1.6112117076190384
C	6.426641598679652	0.03880172975358554	1.3911904275247962
H	0.9512909913200521	2.5602001769932548	0.18991657978769685
H	3.770445334723794	5.976409037934582	0.20530893569402234
H	4.402394113410456	-0.8077108864132991	-1.045931814826624
H	7.714873009629756	3.1354676991893076	-0.9508882549089642
H	2.1094888348965837	-1.548231814860588	-0.7544541279143728
H	8.022341659010817	5.5911147365504315	-0.6419545864979989
H	-0.638968925972332	1.6450938129343498	1.0995003602727436
H	-1.1345863277237402	1.6837948771848352	-0.6064850928061929
H	0.325954204905243	-2.058706503978379	-0.1782715779455691
H	-1.3373431677666074	-1.5939373149766023	0.06230195457715636
H	7.042817824395327	7.053668723217966	1.7831740960942397
H	8.044607983097283	7.703980370076482	0.47057318671939663
H	4.466201201727524	7.768086999458264	-1.2468594474169046
H	5.1685716556465255	9.187882377363742	-0.4010607012828408
H	6.6106830687023255	1.4464763313298652	-3.090068509812554
H	-2.882528732127907	-0.07121354004250409	-0.12020267208083565
H	-2.2949836008461935	-0.17859301031154592	1.5726460709149568
H	-3.0165558465908906	1.3307904352987368	0.9604578487807199
H	-1.460987634014578	-0.6406638210664631	-2.269894446597649
H	0.2523381394331594	-1.0774087014459757	-2.5359625762137714
H	-0.9751075593207209	-2.359706985996331	-2.302534852588564
H	6.971409687810995	9.96846793195364	0.6932384231338163
H	5.84748624837272	9.323684449180861	1.9422661822324867
H	7.599055015113384	9.408509397192073	2.258781896594493
H	5.7981480778194685	9.149215708758012	-2.8451946500985357
H	7.256182154763784	8.988716162032524	-1.8217747621111602
H	6.558480318818729	7.541052329219991	-2.6331638369584995
H	8.4775697919459	-1.5121439009588722	0.4564915596596277
H	8.512015696196988	-0.08726956863786559	-3.6219797092144086
H	9.437837077290954	-1.5772242545906623	-1.834996058187918
H	7.065575350554155	-0.5255531998245896	2.0928124240149875
H	6.344595031817846	1.0772922566288774	1.7589953316853524
H	5.41340445929323	-0.4015183696777843	1.4243274034764546
