64
ADC2_LE2_a
O	3.186085194078862	3.5430016962900392	0.05429167776573513
N	0.0	0.0	0.0
N	5.934863669637696	7.427693085864151	4.838740336009225e-15
C	5.359066949824835	1.8073205743026624	-0.6401889371452375
C	4.003170090928687	1.3225174292741164	-0.5089661581090811
C	5.534634643968173	3.238619092728548	-0.5126334064027578
C	2.9674542341287204	2.2078629555650555	-0.1398442209142672
C	4.439691289868864	4.04985631294045	-0.1430990577481802
C	1.304172953963298	0.42980378706822797	-0.17795492766887408
C	5.8078601599731545	6.062444899856999	-0.1583820485968217
C	6.470324736772322	0.9103610673074088	-0.9689562925893156
C	1.645693533684334	1.7864571868188022	0.004168086450470881
C	4.555188357789084	5.433189114831389	-0.003784273538264848
C	3.6460755584986893	-0.026753418146647088	-0.7156818305261098
C	6.784127809398133	3.87929757015384	-0.6563368406608043
C	2.334096388688566	-0.4668645289573951	-0.5691651196073896
C	6.92150639812371	5.2569397880966156	-0.5097235279921085
C	-1.0268192787015717	0.9907673181459595	0.32952283371499064
C	-0.389872426965874	-1.3424894796975269	-0.4104041319511594
C	4.819683738185605	8.252784600867528	0.44013519663479933
C	7.19292642885142	8.116581662101689	-0.2541616851349893
C	6.956179769069122	3.3130426201528945e-16	-3.908503548857419e-17
C	7.055823349325721	0.9562265127225258	-2.2482535096752616
C	-2.3884372367304576	0.4234096493884903	0.6813275724194164
C	-0.6289606399682044	-1.4432511283168232	-1.913315565892512
C	3.9439059552845013	8.710281509891395	-0.7212995645363328
C	8.103535088662142	8.131285554296754	0.9683016774035887
C	8.004728096837281	-0.8592740291655486	-0.3590359478481359
C	8.104510674408672	0.09509788029644776	-2.5813762483075844
C	8.57831700876375	-0.8175301646191048	-1.6338538926840553
C	6.365106396514794	-0.03074162568861901	1.3832465628452266
H	0.9169416349737939	2.548938275445651	0.26761294086675663
H	3.6492001092094344	5.979809428567748	0.24950863439017526
H	4.421658769394061	-0.7301427529423056	-1.0262253064995153
H	7.657078914774413	3.273777437173082	-0.9061579174200872
H	2.12601866563131	-1.5185392450664927	-0.7517565827972306
H	7.913227930179217	5.690649901824364	-0.6207869402916979
H	-0.6564016434448262	1.571998094212703	1.1860357827262422
H	-1.1210667108329313	1.6962942087654165	-0.5156111346562168
H	0.3849146308161956	-2.0462190406395293	-0.0851959486645758
H	-1.2929277213422763	-1.6185414992897764	0.1410742252857857
H	4.234991078688594	7.698588447088553	1.18576281387973
H	5.245594097534044	9.121302963313422	0.9607287325631402
H	7.688601064824587	7.652812737314253	-1.1160903028167044
H	6.941778247843856	9.142923506141853	-0.5549508961314455
H	6.666866578928593	1.6633948749334198	-2.9854790555770605
H	-2.857722944571771	-0.10112887835613055	-0.1584527704587391
H	-2.336850188528475	-0.2514176983841275	1.5441060867936565
H	-3.043522824813961	1.2603129175559304	0.9528696547118999
H	-1.4378503451691451	-0.7702050617777318	-2.224861297398004
H	0.27690029505756003	-1.177470237040688	-2.472026487802556
H	-0.9153666653185325	-2.4690794153576894	-2.1797353820727103
H	4.529427656287621	9.29742640222264	-1.439661236236587
H	3.5109865930593442	7.852360595734822	-1.249707614911481
H	3.126197817460365	9.341376844612183	-0.3495335606540671
H	9.029534014893247	8.674839853101727	0.7402503902928403
H	7.612225736105682	8.632119614554945	1.8118941033291998
H	8.363848348187396	7.111724460253847	1.27680777783487
H	8.3901389843822	-1.5638221434659112	0.3820280202797529
H	8.54716126943021	0.1337494166503783	-3.5783442120326825
H	9.396347942478094	-1.4948058342390265	-1.8848344924052753
H	6.991207717104625	-0.6227747976276891	2.063110135611832
H	6.276355645992099	0.9840990944804395	1.7955558139244818
H	5.357209530399357	-0.4720159411063509	1.3850190976046801
