64
TDDFT_LE1_a
O	3.184030149838815	3.5139583378499957	-0.028139543082880428
N	0.0	0.0	0.0
N	5.981454329923263	7.339530363409043	-3.4476550675590985e-15
C	5.329251365101932	1.7666789345036382	-0.6500426214066909
C	3.9993885200101182	1.2848129372228807	-0.49424465239898285
C	5.532929947752837	3.166368143336274	-0.4952608814119859
C	2.9458137468350474	2.186873744818857	-0.1760614886498699
C	4.43351741745122	4.017567385698252	-0.18897553530122008
C	1.2845505072602987	0.4108387596328711	-0.15276264013702495
C	5.838558501192791	6.00081909607743	-0.15427773489012886
C	6.447876248293963	0.8543571561215224	-0.9796570807213695
C	1.642904065559433	1.778912900978669	-0.005960699702618536
C	4.567463934854057	5.377047587406298	-0.02666558069122254
C	3.6236402718229366	-0.0801698260620464	-0.6486537133387726
C	6.801074166901911	3.8046244119373327	-0.6077984828403145
C	2.332032853310372	-0.5068553489330798	-0.48337461306114665
C	6.956260714805155	5.156618052588381	-0.4478457821160073
C	-1.053067798865241	0.9364612955690301	0.3794943186824932
C	-0.36408355956993804	-1.4094690229910813	-0.11661265172119664
C	7.286962293320964	7.989379636838595	-0.04228439324699961
C	4.838617482743576	8.218317937561258	0.21713734612924557
C	6.990824312571229	7.832597178970413e-16	-6.581672004655643e-17
C	6.9687570001473444	0.8483236141021487	-2.278637703228633
C	-1.1017375089016044	1.2537216492174017	1.8718050499036714
C	-0.08468711741924	-2.2340539227049367	1.136687017571197
C	7.722797479658006	8.370877829425382	-1.452420258613728
C	4.459300212906096	8.360087529349522	1.6872883245240593
C	8.03803189166191	-0.847847777032435	-0.3676040622193795
C	8.012031565805325	-0.0034270644164820165	-2.624249821210923
C	8.545322200834857	-0.8564404785217627	-1.6633744740548768
C	6.472309409712116	0.013361799657824774	1.412806247814225
H	0.9138543292400767	2.545237691719829	0.24154337460565098
H	3.6702085376751588	5.937994699200309	0.22015695191934584
H	4.399902328264325	-0.7992859338975873	-0.913003923673187
H	7.669600429058086	3.1852370323725436	-0.8328381688801084
H	2.1156209323756063	-1.564182953026711	-0.610728979016723
H	7.950129255597527	5.582575180945819	-0.5598091921200156
H	-0.9376574384749579	1.859927377380346	-0.20642961474712865
H	-2.00630683022691	0.4944045439149771	0.061568745228996094
H	-1.4350037421116761	-1.4450659975804967	-0.3556452605549107
H	0.15377609072135429	-1.8407674429237815	-0.9851386881816682
H	7.21969159219716	8.888195919397694	0.5872175632249028
H	8.031788304603872	7.341208670228142	0.43850657709735247
H	5.103016429200746	9.200994464050703	-0.198970856203966
H	3.9864591457053646	7.8599897235290435	-0.3761989701499386
H	6.538428352800245	1.5170413930723612	-3.027674075480048
H	-1.3068360140550896	0.35282590732940167	2.4658265446131424
H	-0.1540571355685924	1.6847988297496184	2.224620846685502
H	-1.903130009833221	1.979786080653348	2.071385020058913
H	0.9793562759901274	-2.2035875812407624	1.4110713480597765
H	-0.6672678636435795	-1.8703543113332588	1.9940915625689373
H	-0.362160924295893	-3.283361438131336	0.9606341121817765
H	7.818965969477159	7.4845718280786535	-2.0957187917083386
H	6.997499378510747	9.052419275351355	-1.9202966115813833
H	8.696000418680182	8.881492314797313	-1.4219017578157092
H	3.6138182538074743	9.054879171570061	1.794050289517434
H	4.167864259484653	7.393049743482756	2.1216045710452245
H	5.29933394368971	8.756329175029013	2.2760146661939182
H	8.470289591310147	-1.5110550398436906	0.38511909153917057
H	8.404659503229698	-0.0023558977269435223	-3.642626146812027
H	9.364683792518775	-1.5301932224297181	-1.9210893103191016
H	7.09136352681326	-0.6146409024115995	2.0664547864751963
H	6.464806223040885	1.0327503739152815	1.8270934033876578
H	5.438297707161788	-0.36173092161137543	1.4714071145726535
